@relation snake_game-weka.filters.unsupervised.instance.Randomize-S42

@attribute snake_pos_x numeric
@attribute snake_pos_y numeric
@attribute snake_pos_x_next numeric
@attribute snake_pos_y_next numeric
@attribute food_pos_x numeric
@attribute food_pos_y numeric
@attribute food_side_y {UP,DOWN,EQUAL}
@attribute food_side_x {RIGHT,LEFT,EQUAL}
@attribute manhattan_distance numeric
@attribute next_manhattan_distance numeric
@attribute large_snake numeric
@attribute right_safe {True,False}
@attribute left_safe {True,False}
@attribute up_safe {True,False}
@attribute down_safe {True,False}
@attribute score numeric
@attribute next_score numeric
@attribute cycle {True,False}
@attribute body_indirection {True,False}
@attribute previous_direction {UP,DOWN,LEFT,RIGHT}
@attribute direction {UP,DOWN,LEFT,RIGHT}

@data
450,90,440,90,370,230,DOWN,LEFT,220,210,50,True,True,True,False,2740,2739,True,False,UP,LEFT
280,230,290,230,460,190,UP,RIGHT,220,210,20,True,False,True,True,973,972,False,False,RIGHT,RIGHT
40,90,30,90,10,110,DOWN,LEFT,50,40,28,False,True,True,True,1483,1482,False,False,LEFT,LEFT
130,10,130,0,420,20,EQUAL,EQUAL,300,310,4,True,True,True,False,64,63,True,False,UP,UP
370,180,370,190,370,230,DOWN,EQUAL,50,40,50,True,True,False,True,2707,2706,False,False,DOWN,DOWN
120,410,110,410,30,410,EQUAL,LEFT,90,80,41,False,True,True,False,2292,2291,True,True,LEFT,LEFT
180,50,190,50,130,10,UP,LEFT,90,100,3,True,False,True,True,-8,-9,False,False,RIGHT,RIGHT
340,290,340,280,170,100,UP,LEFT,360,350,6,True,True,True,False,195,194,True,False,UP,UP
30,310,40,310,430,320,DOWN,RIGHT,410,400,46,True,True,False,True,2534,2533,True,True,DOWN,RIGHT
70,120,70,110,100,10,UP,RIGHT,140,130,10,True,True,True,False,345,344,True,False,UP,UP
270,280,270,270,40,210,UP,LEFT,300,290,45,True,True,True,False,2474,2473,False,False,UP,UP
140,450,130,450,210,440,UP,RIGHT,80,90,44,False,True,True,True,2449,2448,False,False,LEFT,LEFT
300,430,310,430,360,430,EQUAL,RIGHT,60,50,56,True,False,False,True,3061,3060,False,False,RIGHT,RIGHT
220,110,220,120,30,440,DOWN,LEFT,520,510,12,True,True,False,True,481,480,False,False,DOWN,DOWN
90,400,100,400,160,410,DOWN,RIGHT,80,70,54,True,False,True,True,2975,2974,True,True,RIGHT,RIGHT
450,270,450,280,280,210,EQUAL,EQUAL,230,240,17,True,True,False,True,797,796,False,False,DOWN,DOWN
380,0,390,0,420,20,DOWN,RIGHT,60,50,4,True,False,False,True,38,0,False,False,RIGHT,RIGHT
330,230,340,230,460,190,UP,RIGHT,170,160,20,True,False,True,True,968,967,False,False,RIGHT,RIGHT
290,170,290,160,290,50,UP,EQUAL,120,110,42,True,True,True,False,2334,2333,False,False,UP,UP
40,390,40,400,40,400,DOWN,EQUAL,10,0,39,True,True,False,True,2174,2274,True,False,DOWN,DOWN
50,300,60,300,290,50,UP,RIGHT,490,480,42,True,False,True,True,2371,2370,False,False,RIGHT,RIGHT
220,440,230,440,350,310,UP,RIGHT,260,250,23,True,False,True,True,1167,1166,False,False,RIGHT,RIGHT
120,70,130,70,220,70,EQUAL,RIGHT,100,90,29,True,False,True,True,1542,1541,False,False,RIGHT,RIGHT
310,0,320,0,420,20,DOWN,RIGHT,130,120,4,True,False,False,True,45,0,False,False,RIGHT,RIGHT
180,230,180,240,180,360,DOWN,EQUAL,130,120,53,True,True,False,True,2908,2907,True,False,DOWN,DOWN
60,280,50,280,30,410,DOWN,LEFT,160,150,41,False,True,True,True,2327,2326,True,False,LEFT,LEFT
320,380,320,370,320,270,UP,EQUAL,110,100,26,True,True,True,False,1348,1347,True,False,UP,UP
450,110,450,120,120,80,UP,LEFT,360,370,61,True,True,False,True,3361,3360,True,True,DOWN,DOWN
320,200,320,190,310,120,UP,LEFT,90,80,48,True,True,True,False,2628,2627,False,False,UP,UP
170,330,160,330,20,330,EQUAL,LEFT,150,140,33,False,True,True,True,1799,1798,False,False,LEFT,LEFT
40,30,50,30,220,70,DOWN,RIGHT,220,210,29,True,False,True,True,1554,1553,True,False,RIGHT,RIGHT
130,220,130,210,130,70,UP,EQUAL,150,140,13,True,False,True,True,498,497,False,False,RIGHT,UP
210,280,200,280,180,280,EQUAL,LEFT,30,20,24,False,True,True,True,1225,1224,True,False,LEFT,LEFT
380,180,380,170,440,80,UP,RIGHT,160,150,60,True,True,True,False,3280,3279,True,False,UP,UP
220,10,230,10,400,20,DOWN,RIGHT,190,180,8,True,False,True,True,261,260,False,False,RIGHT,RIGHT
150,420,140,420,160,410,UP,RIGHT,20,30,54,False,True,True,True,2987,2986,True,False,LEFT,LEFT
30,90,20,90,10,110,DOWN,LEFT,40,30,28,False,True,True,True,1482,1481,False,False,LEFT,LEFT
270,430,270,420,40,210,UP,LEFT,450,440,45,True,True,True,False,2489,2488,False,False,UP,UP
270,20,270,30,400,20,EQUAL,RIGHT,130,140,8,True,True,False,True,255,254,False,False,DOWN,DOWN
140,150,140,140,260,150,EQUAL,RIGHT,120,130,15,True,True,True,False,640,639,True,False,UP,UP
460,130,460,120,460,20,UP,EQUAL,110,100,18,True,True,True,False,843,842,False,False,UP,UP
120,210,110,210,40,210,EQUAL,LEFT,80,70,45,False,True,True,True,2452,2451,True,False,LEFT,LEFT
240,10,230,10,190,190,DOWN,LEFT,230,220,19,False,True,True,True,910,909,False,False,LEFT,LEFT
370,230,380,230,460,190,UP,RIGHT,130,120,20,True,False,True,True,964,963,False,False,RIGHT,RIGHT
160,360,160,350,390,80,UP,RIGHT,510,500,55,True,True,True,False,3063,3062,False,False,UP,UP
70,30,60,30,60,180,DOWN,LEFT,160,150,14,False,True,True,True,574,573,False,False,LEFT,LEFT
390,450,380,450,280,450,EQUAL,LEFT,110,100,47,False,True,True,True,2577,2576,False,False,LEFT,LEFT
160,90,160,100,160,420,DOWN,EQUAL,330,320,43,True,True,False,True,2402,2401,True,False,DOWN,DOWN
100,420,100,430,110,440,DOWN,RIGHT,30,20,22,True,True,False,True,1080,1079,False,False,DOWN,DOWN
390,400,390,410,360,430,DOWN,LEFT,60,50,56,True,True,False,True,3075,3074,False,False,DOWN,DOWN
320,220,320,210,120,50,UP,LEFT,370,360,27,True,True,True,False,1433,1432,True,False,UP,UP
160,150,160,140,390,80,UP,RIGHT,300,290,55,True,True,True,False,3042,3041,False,False,UP,UP
120,370,110,370,100,370,EQUAL,LEFT,20,10,9,False,True,True,True,274,273,True,False,LEFT,LEFT
120,100,110,100,100,10,UP,LEFT,110,100,10,True,True,False,True,318,317,True,False,DOWN,LEFT
330,280,320,280,180,280,EQUAL,LEFT,150,140,24,False,True,True,True,1237,1236,True,False,LEFT,LEFT
120,80,130,80,130,10,UP,RIGHT,80,70,3,True,True,False,True,-29,-30,True,False,DOWN,RIGHT
320,330,320,320,310,120,UP,LEFT,220,210,48,True,True,True,False,2641,2640,False,False,UP,UP
150,210,140,210,40,210,EQUAL,LEFT,110,100,45,False,True,True,True,2455,2454,True,False,LEFT,LEFT
320,450,320,440,320,270,UP,EQUAL,180,170,26,True,True,True,False,1355,1354,True,False,UP,UP
230,90,220,90,170,100,DOWN,LEFT,70,60,6,False,True,True,True,164,163,False,False,LEFT,LEFT
440,170,440,180,450,270,DOWN,RIGHT,110,100,16,True,True,False,True,707,706,False,False,DOWN,DOWN
380,230,380,220,380,200,UP,EQUAL,30,20,59,True,True,True,False,3184,3183,True,False,UP,UP
420,240,430,240,370,230,UP,LEFT,60,70,50,True,False,True,True,2758,2757,True,False,RIGHT,RIGHT
110,70,120,70,220,70,EQUAL,RIGHT,110,100,29,True,False,True,True,1543,1542,False,False,RIGHT,RIGHT
430,400,430,390,40,240,UP,LEFT,550,540,57,True,True,True,False,3146,3145,True,False,UP,UP
450,300,440,300,280,210,UP,LEFT,260,250,17,True,True,False,True,794,793,False,False,DOWN,LEFT
270,280,260,280,180,280,EQUAL,LEFT,90,80,24,False,True,True,True,1231,1230,True,False,LEFT,LEFT
410,90,400,90,370,230,DOWN,LEFT,180,170,50,False,True,True,True,2736,2735,True,False,LEFT,LEFT
450,190,450,200,120,80,UP,LEFT,440,450,61,True,True,False,True,3353,3352,True,False,DOWN,DOWN
70,210,70,200,100,10,UP,RIGHT,230,220,10,True,True,True,False,354,353,True,False,UP,UP
320,30,330,30,400,20,UP,RIGHT,90,80,8,True,False,True,True,249,248,False,False,RIGHT,RIGHT
180,310,180,320,180,360,DOWN,EQUAL,50,40,53,True,True,False,True,2900,2899,True,False,DOWN,DOWN
190,420,190,430,210,440,DOWN,RIGHT,40,30,44,True,True,False,True,2399,2398,True,False,DOWN,DOWN
270,0,280,0,420,20,DOWN,RIGHT,170,160,4,True,False,False,True,49,0,False,False,RIGHT,RIGHT
180,90,180,100,180,360,DOWN,EQUAL,270,260,53,True,True,False,True,2922,2921,True,True,DOWN,DOWN
430,330,440,330,440,370,DOWN,RIGHT,50,40,37,True,False,True,True,2083,2082,False,False,RIGHT,RIGHT
180,0,190,0,420,20,DOWN,RIGHT,260,250,4,True,False,False,True,58,0,False,False,RIGHT,RIGHT
140,220,140,230,160,420,DOWN,RIGHT,220,210,43,True,True,False,True,2387,2386,False,False,DOWN,DOWN
30,260,30,270,430,320,DOWN,RIGHT,460,450,46,True,True,False,True,2539,2538,True,False,DOWN,DOWN
160,100,160,110,160,420,DOWN,EQUAL,320,310,43,True,True,False,True,2401,2400,True,False,DOWN,DOWN
320,360,310,360,100,50,UP,LEFT,530,520,52,False,True,True,True,2886,2885,False,False,LEFT,LEFT
430,420,430,410,40,240,UP,LEFT,570,560,57,True,True,True,False,3148,3147,True,False,UP,UP
120,50,120,60,100,10,UP,LEFT,60,70,10,True,True,False,True,323,322,True,False,DOWN,DOWN
240,230,250,230,460,190,UP,RIGHT,260,250,20,True,False,True,True,977,976,False,False,RIGHT,RIGHT
340,170,340,180,370,230,DOWN,RIGHT,90,80,50,True,True,False,True,2773,2772,False,False,DOWN,DOWN
430,330,430,320,40,240,UP,LEFT,480,470,57,True,True,True,False,3139,3138,True,False,UP,UP
100,160,100,150,100,50,UP,EQUAL,110,100,52,True,True,True,False,2844,2843,False,False,UP,UP
40,470,50,470,320,270,UP,RIGHT,480,470,26,True,False,True,False,1385,0,True,False,RIGHT,RIGHT
360,420,350,420,360,430,DOWN,EQUAL,10,20,56,False,True,True,True,3070,3069,True,False,LEFT,LEFT
350,160,340,160,370,230,DOWN,RIGHT,90,100,50,False,True,True,True,2775,2774,False,False,LEFT,LEFT
420,270,420,280,100,370,DOWN,LEFT,420,410,9,True,True,False,True,314,313,False,False,DOWN,DOWN
310,330,300,330,20,330,EQUAL,LEFT,290,280,33,False,True,True,True,1813,1812,False,False,LEFT,LEFT
10,280,10,290,10,460,DOWN,EQUAL,180,170,25,False,True,True,True,1306,1305,True,False,LEFT,DOWN
300,0,310,0,420,20,DOWN,RIGHT,140,130,4,True,False,False,True,46,0,False,False,RIGHT,RIGHT
450,420,460,420,460,440,DOWN,RIGHT,30,20,58,True,True,False,True,3117,3116,True,False,DOWN,RIGHT
190,300,200,300,290,50,UP,RIGHT,350,340,42,True,False,True,True,2357,2356,False,False,RIGHT,RIGHT
380,200,380,190,440,80,EQUAL,EQUAL,180,170,60,True,True,True,False,3282,3281,True,False,UP,UP
240,450,230,450,310,120,UP,RIGHT,400,410,48,False,True,True,True,2663,2662,False,False,LEFT,LEFT
420,130,420,140,100,370,DOWN,LEFT,560,550,9,True,True,False,True,328,327,False,False,DOWN,DOWN
70,70,70,60,100,10,UP,RIGHT,90,80,10,True,True,True,False,340,339,True,False,UP,UP
180,390,180,400,160,410,DOWN,LEFT,40,30,54,True,True,False,True,2993,2992,True,False,DOWN,DOWN
360,350,370,350,390,260,UP,RIGHT,120,110,38,True,False,True,True,2143,2142,True,False,RIGHT,RIGHT
380,190,380,200,150,260,DOWN,LEFT,300,290,21,True,True,False,True,1038,1037,True,False,DOWN,DOWN
160,240,160,230,390,80,UP,RIGHT,390,380,55,True,True,True,False,3051,3050,False,False,UP,UP
30,290,30,300,430,320,DOWN,RIGHT,430,420,46,True,True,False,True,2536,2535,True,False,DOWN,DOWN
200,150,210,150,280,160,DOWN,RIGHT,90,80,32,True,False,True,True,1743,1742,True,True,RIGHT,RIGHT
380,230,370,230,40,240,DOWN,LEFT,350,340,57,False,True,True,True,3124,3123,True,False,LEFT,LEFT
110,10,100,10,100,10,EQUAL,LEFT,10,0,10,True,True,True,False,308,408,True,False,UP,LEFT
160,210,150,210,40,210,EQUAL,LEFT,120,110,45,False,True,True,True,2456,2455,True,False,LEFT,LEFT
380,340,380,330,380,200,UP,EQUAL,140,130,59,True,True,True,False,3195,3194,True,True,UP,UP
370,210,360,210,40,400,DOWN,LEFT,520,510,39,False,True,True,True,2225,2224,False,False,LEFT,LEFT
140,410,150,410,220,360,UP,RIGHT,130,120,40,True,False,True,True,2263,2262,True,False,RIGHT,RIGHT
450,220,450,210,370,230,DOWN,LEFT,90,100,50,True,True,True,False,2753,2752,True,False,UP,UP
320,210,320,200,120,50,UP,LEFT,360,350,27,True,True,True,False,1432,1431,True,False,UP,UP
210,190,220,190,460,440,DOWN,RIGHT,500,490,58,True,False,True,True,3164,3163,True,False,RIGHT,RIGHT
130,300,140,300,210,440,DOWN,RIGHT,220,210,44,True,False,True,True,2417,2416,True,False,RIGHT,RIGHT
350,430,350,420,350,310,UP,EQUAL,120,110,23,True,True,True,False,1153,1152,True,False,UP,UP
300,160,310,160,20,330,DOWN,LEFT,450,460,33,True,False,True,True,1833,1832,False,False,RIGHT,RIGHT
120,220,130,220,260,150,UP,RIGHT,210,200,15,True,False,True,True,649,648,True,False,RIGHT,RIGHT
190,210,190,220,460,190,UP,RIGHT,290,300,20,True,True,False,True,984,983,False,False,DOWN,DOWN
350,340,350,330,350,310,UP,EQUAL,30,20,23,True,True,True,False,1144,1143,True,False,UP,UP
370,150,370,160,370,230,DOWN,EQUAL,80,70,50,True,True,False,True,2710,2709,False,False,DOWN,DOWN
350,410,350,400,350,310,UP,EQUAL,100,90,23,True,True,True,False,1151,1150,True,False,UP,UP
60,140,60,150,60,180,DOWN,EQUAL,40,30,14,True,True,False,True,562,561,True,False,DOWN,DOWN
380,420,380,410,380,200,UP,EQUAL,220,210,59,True,True,True,False,3203,3202,True,True,UP,UP
160,50,170,50,390,80,DOWN,RIGHT,260,250,55,True,True,True,False,3032,3031,False,False,UP,RIGHT
20,280,10,280,10,460,DOWN,LEFT,190,180,25,False,True,True,True,1307,1306,True,False,LEFT,LEFT
190,30,180,30,160,420,DOWN,LEFT,420,410,43,False,True,True,True,2411,2410,False,False,LEFT,LEFT
160,170,150,170,280,160,UP,RIGHT,130,140,32,False,True,True,True,1757,1756,False,False,LEFT,LEFT
180,30,190,30,400,20,UP,RIGHT,230,220,8,True,False,True,True,267,266,True,False,RIGHT,RIGHT
130,190,130,180,130,70,UP,EQUAL,120,110,13,True,True,True,False,495,494,False,False,UP,UP
40,130,40,140,30,440,DOWN,LEFT,320,310,12,True,True,False,True,461,460,False,False,DOWN,DOWN
270,230,260,230,40,240,DOWN,LEFT,240,230,57,False,True,True,True,3113,3112,True,False,LEFT,LEFT
450,230,450,220,370,230,EQUAL,LEFT,80,90,50,True,True,True,False,2754,2753,True,False,UP,UP
200,420,210,420,210,440,DOWN,RIGHT,30,20,44,True,False,True,True,2462,2461,False,False,RIGHT,RIGHT
180,50,180,60,180,360,DOWN,EQUAL,310,300,53,True,False,True,True,2926,2925,False,True,RIGHT,DOWN
220,340,220,330,30,410,DOWN,LEFT,260,270,41,True,True,True,False,2349,2348,True,False,UP,UP
400,450,390,450,280,450,EQUAL,LEFT,120,110,47,False,True,True,True,2578,2577,False,False,LEFT,LEFT
160,100,160,90,390,80,UP,RIGHT,250,240,55,True,True,True,False,3037,3036,False,False,UP,UP
30,430,30,440,30,440,DOWN,EQUAL,10,0,12,True,True,False,True,430,530,False,False,DOWN,DOWN
130,370,120,370,100,370,EQUAL,LEFT,30,20,9,False,True,True,True,275,274,True,False,LEFT,LEFT
350,150,360,150,450,270,DOWN,RIGHT,220,210,16,True,False,True,True,718,717,False,False,RIGHT,RIGHT
70,0,80,0,100,10,DOWN,RIGHT,40,30,10,True,True,False,False,333,0,True,False,UP,RIGHT
270,210,260,210,40,210,EQUAL,LEFT,230,220,45,True,True,True,False,2467,2466,False,False,UP,LEFT
100,450,90,450,210,440,UP,RIGHT,120,130,44,False,True,True,True,2445,2444,False,False,LEFT,LEFT
140,450,150,450,270,380,UP,RIGHT,200,190,35,True,False,True,True,1922,1921,False,False,RIGHT,RIGHT
240,210,230,210,40,210,EQUAL,LEFT,200,190,45,False,True,True,True,2464,2463,True,False,LEFT,LEFT
360,240,370,240,370,230,UP,RIGHT,20,10,50,True,False,True,True,2764,2763,True,False,RIGHT,RIGHT
150,30,160,30,400,20,UP,RIGHT,260,250,8,True,False,True,True,270,269,True,False,RIGHT,RIGHT
260,260,250,260,150,260,EQUAL,LEFT,110,100,21,False,True,True,True,1019,1018,False,False,LEFT,LEFT
140,50,150,50,130,10,UP,LEFT,50,60,3,True,False,True,True,-4,-5,False,False,RIGHT,RIGHT
30,440,40,440,130,70,EQUAL,EQUAL,470,460,13,True,True,False,True,530,529,False,False,DOWN,RIGHT
320,430,310,430,390,260,UP,RIGHT,240,250,38,False,True,True,True,2161,2160,True,False,LEFT,LEFT
160,450,150,450,210,440,UP,RIGHT,60,70,44,False,True,True,True,2451,2450,False,False,LEFT,LEFT
260,10,270,10,400,20,DOWN,RIGHT,150,140,8,True,False,True,True,257,256,False,False,RIGHT,RIGHT
230,10,240,10,400,20,DOWN,RIGHT,180,170,8,True,False,True,True,260,259,False,False,RIGHT,RIGHT
390,230,390,220,40,400,DOWN,LEFT,520,530,39,True,True,True,False,2229,2228,False,False,UP,UP
320,160,320,150,310,120,UP,LEFT,50,40,48,True,True,True,False,2624,2623,False,False,UP,UP
320,200,320,190,120,50,UP,LEFT,350,340,27,True,True,True,False,1431,1430,True,False,UP,UP
460,440,460,450,380,200,EQUAL,EQUAL,320,330,59,True,True,False,True,3215,3214,False,False,DOWN,DOWN
390,10,380,10,190,190,DOWN,LEFT,380,370,19,False,True,True,True,925,924,False,False,LEFT,LEFT
350,230,360,230,460,190,UP,RIGHT,150,140,20,True,False,True,True,966,965,False,False,RIGHT,RIGHT
130,80,130,70,130,70,UP,EQUAL,10,0,13,True,True,True,False,484,584,False,False,UP,UP
340,270,340,260,170,100,UP,LEFT,340,330,6,True,True,True,False,193,192,True,False,UP,UP
160,90,160,80,390,80,UP,RIGHT,240,230,55,True,True,True,False,3036,3035,False,False,UP,UP
70,350,70,340,100,10,UP,RIGHT,370,360,10,True,True,True,False,368,367,True,False,UP,UP
270,350,270,340,40,210,UP,LEFT,370,360,45,True,True,True,False,2481,2480,False,False,UP,UP
10,470,20,470,320,270,UP,RIGHT,510,500,26,True,True,False,False,1388,0,True,False,DOWN,RIGHT
160,50,170,50,130,10,UP,LEFT,70,80,3,True,False,True,True,-6,-7,False,False,RIGHT,RIGHT
420,210,420,220,100,370,DOWN,LEFT,480,470,9,True,True,False,True,320,319,False,False,DOWN,DOWN
180,50,180,60,190,190,DOWN,RIGHT,150,140,19,True,True,False,True,900,899,True,False,DOWN,DOWN
190,70,200,70,220,70,EQUAL,RIGHT,30,20,29,True,False,True,True,1535,1534,False,False,RIGHT,RIGHT
450,160,440,160,150,260,DOWN,LEFT,400,390,21,False,True,True,True,1048,1047,True,False,LEFT,LEFT
360,370,350,370,100,370,EQUAL,LEFT,260,250,9,False,True,True,True,298,297,True,False,LEFT,LEFT
370,260,360,260,150,260,EQUAL,LEFT,220,210,21,False,True,True,True,1030,1029,False,False,LEFT,LEFT
160,400,160,390,390,80,UP,RIGHT,550,540,55,True,True,True,False,3067,3066,False,False,UP,UP
320,310,320,320,20,330,DOWN,LEFT,320,310,33,True,True,False,True,1816,1815,False,False,DOWN,DOWN
420,140,420,150,100,370,DOWN,LEFT,550,540,9,True,True,False,True,327,326,False,False,DOWN,DOWN
180,40,170,40,120,50,DOWN,LEFT,70,60,27,False,True,True,True,1401,1400,True,False,LEFT,LEFT
420,20,420,30,340,300,EQUAL,EQUAL,360,350,5,True,True,False,True,133,132,False,False,DOWN,DOWN
350,240,360,240,370,230,UP,RIGHT,30,20,50,True,False,True,True,2765,2764,True,False,RIGHT,RIGHT
350,370,340,370,100,370,EQUAL,LEFT,250,240,9,False,True,True,True,297,296,True,False,LEFT,LEFT
320,280,320,290,20,330,DOWN,LEFT,350,340,33,True,True,False,True,1819,1818,False,False,DOWN,DOWN
110,420,120,420,30,410,UP,LEFT,90,100,41,True,False,True,True,2300,2299,True,False,RIGHT,RIGHT
70,310,70,300,100,10,UP,RIGHT,330,320,10,True,True,True,False,364,363,True,False,UP,UP
460,30,460,20,460,20,UP,EQUAL,10,0,18,True,True,True,False,833,933,False,False,UP,UP
460,170,460,160,150,260,DOWN,LEFT,400,410,21,True,True,True,False,1050,1049,False,False,UP,UP
40,330,40,340,30,440,DOWN,LEFT,120,110,12,True,True,False,True,441,440,False,False,DOWN,DOWN
140,290,140,300,160,420,DOWN,RIGHT,150,140,43,True,True,False,True,2380,2379,False,False,DOWN,DOWN
200,90,200,100,50,250,DOWN,LEFT,310,300,7,True,True,False,True,234,233,False,False,DOWN,DOWN
350,190,360,190,460,440,DOWN,RIGHT,360,350,58,True,False,True,True,3150,3149,True,False,RIGHT,RIGHT
360,160,350,160,370,230,DOWN,RIGHT,80,90,50,False,True,True,True,2776,2775,False,False,LEFT,LEFT
460,110,460,100,460,20,UP,EQUAL,90,80,18,True,True,True,False,841,840,False,False,UP,UP
130,200,130,190,130,70,UP,EQUAL,130,120,13,True,True,True,False,496,495,False,False,UP,UP
190,260,180,260,50,250,UP,LEFT,150,140,7,False,True,True,True,216,215,True,False,LEFT,LEFT
260,280,250,280,180,280,EQUAL,LEFT,80,70,24,False,True,True,True,1230,1229,True,False,LEFT,LEFT
440,350,440,360,440,370,DOWN,EQUAL,20,10,37,True,True,False,True,2080,2079,False,False,DOWN,DOWN
300,280,290,280,180,280,EQUAL,LEFT,120,110,24,False,True,True,True,1234,1233,True,False,LEFT,LEFT
380,160,380,150,440,80,UP,RIGHT,140,130,60,True,True,True,False,3278,3277,True,False,UP,UP
370,190,380,190,460,440,DOWN,RIGHT,340,330,58,True,False,True,True,3148,3147,True,False,RIGHT,RIGHT
120,30,110,30,60,180,DOWN,LEFT,210,200,14,False,True,True,True,579,578,False,False,LEFT,LEFT
110,220,110,210,100,50,UP,LEFT,180,170,52,True,True,True,False,2851,2850,True,False,UP,UP
350,330,350,320,350,310,UP,EQUAL,20,10,23,True,True,True,False,1143,1142,True,False,UP,UP
370,350,370,360,100,50,UP,LEFT,570,580,52,True,True,False,True,2892,2891,False,False,DOWN,DOWN
250,300,260,300,290,50,UP,RIGHT,290,280,42,True,False,True,True,2351,2350,False,False,RIGHT,RIGHT
270,390,270,380,40,210,UP,LEFT,410,400,45,True,True,True,False,2485,2484,False,False,UP,UP
140,210,140,220,160,420,DOWN,RIGHT,230,220,43,True,True,False,True,2388,2387,False,False,DOWN,DOWN
340,210,330,210,40,400,DOWN,LEFT,490,480,39,False,True,True,True,2222,2221,False,False,LEFT,LEFT
190,230,180,230,40,240,DOWN,LEFT,160,150,57,False,True,True,True,3105,3104,True,False,LEFT,LEFT
380,400,380,390,380,200,UP,EQUAL,200,190,59,True,True,True,False,3201,3200,True,True,UP,UP
160,330,150,330,20,330,EQUAL,LEFT,140,130,33,False,True,True,True,1798,1797,False,False,LEFT,LEFT
60,300,70,300,210,440,DOWN,RIGHT,290,280,44,True,False,True,True,2424,2423,True,False,RIGHT,RIGHT
180,330,170,330,20,330,EQUAL,LEFT,160,150,33,False,True,True,True,1800,1799,False,False,LEFT,LEFT
50,400,50,390,210,440,DOWN,RIGHT,200,210,44,True,True,True,False,2435,2434,True,False,UP,UP
420,110,420,120,100,370,DOWN,LEFT,580,570,9,True,True,False,True,330,329,False,False,DOWN,DOWN
210,420,220,420,210,440,DOWN,EQUAL,20,30,44,True,False,True,True,2461,2460,False,False,RIGHT,RIGHT
80,420,90,420,30,410,UP,LEFT,60,70,41,True,False,True,True,2303,2302,True,False,RIGHT,RIGHT
320,270,320,260,310,120,UP,LEFT,160,150,48,True,True,True,False,2635,2634,False,False,UP,UP
220,280,210,280,180,280,EQUAL,LEFT,40,30,24,False,True,True,True,1226,1225,True,False,LEFT,LEFT
160,50,160,60,160,420,DOWN,EQUAL,370,360,43,True,True,False,True,2406,2405,True,False,DOWN,DOWN
190,120,190,130,190,190,DOWN,EQUAL,70,60,19,True,False,True,True,892,891,True,False,RIGHT,DOWN
220,140,230,140,260,150,DOWN,RIGHT,50,40,15,True,False,True,True,631,630,False,False,RIGHT,RIGHT
10,70,10,60,220,70,EQUAL,RIGHT,210,220,29,True,True,True,False,1561,1560,False,False,UP,UP
410,150,420,150,450,270,DOWN,RIGHT,160,150,16,True,False,True,True,712,711,False,False,RIGHT,RIGHT
310,160,320,160,20,330,DOWN,LEFT,460,470,33,True,False,True,True,1832,1831,False,False,RIGHT,RIGHT
440,210,440,220,450,270,DOWN,RIGHT,70,60,16,True,True,False,True,703,702,False,False,DOWN,DOWN
320,380,320,370,310,120,UP,LEFT,270,260,48,True,True,True,False,2646,2645,False,False,UP,UP
360,190,370,190,460,440,DOWN,RIGHT,350,340,58,True,False,True,True,3149,3148,True,False,RIGHT,RIGHT
290,310,300,310,430,320,DOWN,RIGHT,150,140,46,True,False,True,True,2508,2507,True,False,RIGHT,RIGHT
380,350,380,340,380,200,UP,EQUAL,150,140,59,True,True,True,False,3196,3195,True,True,UP,UP
290,410,300,410,310,120,UP,RIGHT,310,300,48,True,False,True,True,2652,2651,True,True,RIGHT,RIGHT
350,390,350,380,350,310,UP,EQUAL,80,70,23,True,True,True,False,1149,1148,True,False,UP,UP
240,210,230,210,40,400,DOWN,LEFT,390,380,39,False,True,True,True,2212,2211,False,False,LEFT,LEFT
430,370,430,360,40,240,UP,LEFT,520,510,57,True,True,True,False,3143,3142,True,False,UP,UP
380,140,380,130,440,80,UP,RIGHT,120,110,60,True,True,True,False,3276,3275,True,False,UP,UP
210,90,200,90,170,100,DOWN,LEFT,50,40,6,False,True,True,True,162,161,False,False,LEFT,LEFT
210,30,200,30,160,420,DOWN,LEFT,440,430,43,False,True,True,True,2413,2412,False,False,LEFT,LEFT
160,40,160,50,160,420,DOWN,EQUAL,380,370,43,True,True,False,True,2407,2406,True,False,DOWN,DOWN
300,300,290,300,280,210,UP,LEFT,110,100,17,False,True,True,True,779,778,False,False,LEFT,LEFT
40,210,30,210,430,320,EQUAL,EQUAL,500,510,46,False,True,True,True,2545,2544,True,False,LEFT,LEFT
260,10,250,10,190,190,DOWN,LEFT,250,240,19,False,True,True,True,912,911,False,False,LEFT,LEFT
160,210,160,200,390,80,UP,RIGHT,360,350,55,True,True,True,False,3048,3047,False,False,UP,UP
320,300,320,290,310,120,UP,LEFT,190,180,48,True,True,True,False,2638,2637,False,False,UP,UP
210,300,220,300,290,50,UP,RIGHT,330,320,42,True,False,True,True,2355,2354,False,False,RIGHT,RIGHT
430,450,420,450,380,200,UP,LEFT,300,290,59,False,True,True,True,3211,3210,False,False,LEFT,LEFT
40,400,40,410,220,360,EQUAL,EQUAL,220,230,40,True,True,False,True,2274,2273,True,False,DOWN,DOWN
380,330,380,320,380,200,UP,EQUAL,130,120,59,True,True,True,False,3194,3193,True,True,UP,UP
100,420,100,410,130,70,UP,RIGHT,380,370,13,True,True,True,False,521,520,True,False,UP,UP
160,340,160,330,390,80,UP,RIGHT,490,480,55,True,True,True,False,3061,3060,False,False,UP,UP
390,180,390,190,360,430,DOWN,LEFT,280,270,56,True,True,False,True,3097,3096,False,False,DOWN,DOWN
60,110,60,120,60,180,DOWN,EQUAL,70,60,14,True,True,False,True,565,564,True,False,DOWN,DOWN
420,20,420,30,100,370,DOWN,LEFT,670,660,9,True,False,True,True,339,338,False,False,RIGHT,DOWN
100,100,100,90,100,50,UP,EQUAL,50,40,52,True,True,True,False,2838,2837,False,False,UP,UP
160,190,160,180,390,80,UP,RIGHT,340,330,55,True,True,True,False,3046,3045,False,False,UP,UP
430,340,430,350,280,450,DOWN,LEFT,260,250,47,True,True,False,True,2592,2591,False,False,DOWN,DOWN
430,360,430,370,280,450,DOWN,LEFT,240,230,47,True,True,False,True,2590,2589,False,False,DOWN,DOWN
110,260,100,260,50,250,UP,LEFT,70,60,7,False,True,True,True,208,207,True,False,LEFT,LEFT
80,410,70,410,30,410,EQUAL,LEFT,50,40,41,False,True,True,False,2288,2287,True,True,LEFT,LEFT
340,160,340,170,370,230,DOWN,RIGHT,100,90,50,False,True,True,True,2774,2773,False,False,LEFT,DOWN
350,350,350,340,350,310,UP,EQUAL,40,30,23,True,True,True,False,1145,1144,True,False,UP,UP
100,180,100,170,100,50,UP,EQUAL,130,120,52,True,True,True,False,2846,2845,False,False,UP,UP
60,280,50,280,10,460,DOWN,LEFT,230,220,25,False,True,True,True,1311,1310,True,False,LEFT,LEFT
20,90,20,100,10,110,DOWN,LEFT,30,20,28,False,True,True,True,1481,1480,False,False,LEFT,DOWN
210,440,220,440,40,210,EQUAL,EQUAL,400,410,45,True,False,True,True,2496,2495,False,False,RIGHT,RIGHT
140,50,150,50,180,360,DOWN,RIGHT,350,340,53,True,False,True,True,2930,2929,False,False,RIGHT,RIGHT
430,150,440,150,450,270,DOWN,RIGHT,140,130,16,True,False,True,True,710,709,False,False,RIGHT,RIGHT
380,200,380,210,150,260,DOWN,LEFT,290,280,21,True,True,False,True,1037,1036,True,False,DOWN,DOWN
450,170,450,160,370,230,DOWN,LEFT,140,150,50,True,True,True,False,2748,2747,True,False,UP,UP
340,120,340,110,170,100,UP,LEFT,190,180,6,True,True,True,False,178,177,True,False,UP,UP
160,380,160,390,80,410,DOWN,LEFT,110,100,34,True,True,False,True,1842,1841,False,False,DOWN,DOWN
40,320,40,330,40,400,DOWN,EQUAL,80,70,39,True,True,False,True,2181,2180,True,False,DOWN,DOWN
130,300,140,300,290,50,UP,RIGHT,410,400,42,True,False,True,True,2363,2362,False,False,RIGHT,RIGHT
390,140,390,150,360,430,DOWN,LEFT,320,310,56,True,True,False,True,3101,3100,False,False,DOWN,DOWN
320,210,320,200,310,120,UP,LEFT,100,90,48,True,True,True,False,2629,2628,False,False,UP,UP
420,260,420,270,100,370,DOWN,LEFT,430,420,9,True,True,False,True,315,314,False,False,DOWN,DOWN
360,230,350,230,40,240,DOWN,LEFT,330,320,57,False,True,True,True,3122,3121,True,False,LEFT,LEFT
110,330,110,320,100,50,UP,LEFT,290,280,52,True,True,True,False,2862,2861,True,False,UP,UP
100,470,110,470,320,270,UP,RIGHT,420,410,26,True,False,True,False,1379,0,True,False,RIGHT,RIGHT
120,270,120,260,130,70,UP,RIGHT,210,200,13,True,True,True,False,504,503,False,False,UP,UP
100,260,90,260,110,440,DOWN,RIGHT,190,200,22,False,True,True,True,1104,1103,False,False,LEFT,LEFT
310,80,310,90,310,120,DOWN,EQUAL,40,30,48,True,False,False,True,2607,2606,True,True,DOWN,DOWN
370,360,360,360,100,50,UP,LEFT,580,570,52,True,True,False,True,2891,2890,False,False,DOWN,LEFT
290,50,290,40,160,420,EQUAL,EQUAL,500,510,43,True,True,True,False,2423,2422,False,False,UP,UP
290,230,280,230,40,240,DOWN,LEFT,260,250,57,False,True,True,True,3115,3114,True,False,LEFT,LEFT
360,430,350,430,390,260,UP,RIGHT,200,210,38,False,True,True,True,2165,2164,True,False,LEFT,LEFT
60,150,60,160,60,180,DOWN,EQUAL,30,20,14,True,True,False,True,561,560,True,False,DOWN,DOWN
100,430,100,420,130,70,UP,RIGHT,390,380,13,True,True,True,False,522,521,True,False,UP,UP
160,260,150,260,50,250,UP,LEFT,120,110,7,False,True,True,True,213,212,True,False,LEFT,LEFT
110,310,120,310,110,440,DOWN,EQUAL,130,140,22,True,False,True,True,1094,1093,False,False,RIGHT,RIGHT
450,150,450,140,370,230,DOWN,LEFT,160,170,50,True,True,True,False,2746,2745,True,False,UP,UP
160,360,150,360,100,50,UP,LEFT,370,360,52,False,True,True,True,2870,2869,False,False,LEFT,LEFT
450,390,450,400,460,440,DOWN,RIGHT,60,50,58,True,True,False,True,3120,3119,True,False,DOWN,DOWN
150,450,140,450,210,440,UP,RIGHT,70,80,44,False,True,True,True,2450,2449,False,False,LEFT,LEFT
450,220,450,230,460,440,DOWN,RIGHT,230,220,58,True,True,False,True,3137,3136,True,False,DOWN,DOWN
290,90,290,100,370,230,DOWN,RIGHT,220,210,50,False,True,True,True,2724,2723,True,False,LEFT,DOWN
150,320,160,320,80,410,DOWN,LEFT,160,170,34,True,False,True,True,1849,1848,False,False,RIGHT,RIGHT
10,370,10,380,10,460,DOWN,EQUAL,90,80,25,True,True,False,True,1297,1296,True,False,DOWN,DOWN
280,440,290,440,350,310,UP,RIGHT,200,190,23,True,False,True,True,1161,1160,False,False,RIGHT,RIGHT
40,340,40,350,30,440,DOWN,LEFT,110,100,12,True,True,False,True,440,439,False,False,DOWN,DOWN
250,330,240,330,20,330,EQUAL,LEFT,230,220,33,False,True,True,True,1807,1806,False,False,LEFT,LEFT
380,240,380,250,150,260,DOWN,LEFT,250,240,21,True,True,False,True,1033,1032,True,False,DOWN,DOWN
150,390,140,390,80,410,DOWN,LEFT,90,80,34,False,True,True,True,1840,1839,False,False,LEFT,LEFT
150,420,160,420,160,420,EQUAL,RIGHT,10,0,43,True,True,False,True,2366,2466,False,False,DOWN,RIGHT
10,170,10,160,10,110,UP,EQUAL,60,50,28,False,True,True,False,1470,1469,False,False,UP,UP
100,260,90,260,50,250,UP,LEFT,60,50,7,False,True,True,True,207,206,True,False,LEFT,LEFT
110,30,120,30,400,20,UP,RIGHT,300,290,8,True,False,True,True,274,273,True,False,RIGHT,RIGHT
380,50,390,50,390,80,DOWN,RIGHT,40,30,55,True,False,True,True,3010,3009,False,False,RIGHT,RIGHT
160,350,160,340,390,80,UP,RIGHT,500,490,55,True,True,True,False,3062,3061,False,False,UP,UP
220,150,230,150,280,160,DOWN,RIGHT,70,60,32,True,False,True,True,1741,1740,True,True,RIGHT,RIGHT
60,80,60,90,60,180,DOWN,EQUAL,100,90,14,True,True,False,True,568,567,True,False,DOWN,DOWN
460,430,460,440,460,440,DOWN,EQUAL,10,0,58,True,True,False,True,3115,3215,False,False,DOWN,DOWN
80,320,90,320,80,410,DOWN,EQUAL,90,100,34,True,True,False,True,1856,1855,False,False,DOWN,RIGHT
290,260,290,250,290,50,UP,EQUAL,210,200,42,True,True,True,False,2343,2342,False,False,UP,UP
40,260,40,270,40,400,DOWN,EQUAL,140,130,39,True,True,False,True,2187,2186,True,False,DOWN,DOWN
310,150,300,150,310,120,UP,EQUAL,30,40,48,False,True,True,True,2622,2621,False,False,LEFT,LEFT
270,410,280,410,310,120,UP,RIGHT,330,320,48,True,False,True,True,2654,2653,True,True,RIGHT,RIGHT
70,240,60,240,40,240,EQUAL,LEFT,30,20,57,False,True,True,True,3092,3091,False,False,LEFT,LEFT
400,300,390,300,280,210,UP,LEFT,210,200,17,False,True,True,True,789,788,False,False,LEFT,LEFT
320,80,320,70,120,50,UP,LEFT,230,220,27,True,True,True,False,1419,1418,True,False,UP,UP
10,90,10,80,220,70,UP,RIGHT,230,220,29,False,True,True,False,1563,1562,False,False,UP,UP
180,10,180,20,190,190,DOWN,RIGHT,190,180,19,False,True,True,True,904,903,False,False,LEFT,DOWN
120,60,120,70,100,10,UP,LEFT,70,80,10,True,True,False,True,322,321,True,False,DOWN,DOWN
240,0,250,0,420,20,DOWN,RIGHT,200,190,4,True,False,False,True,52,0,False,False,RIGHT,RIGHT
370,290,370,300,370,330,DOWN,EQUAL,40,30,51,True,True,False,True,2797,2796,False,False,DOWN,DOWN
100,380,100,390,110,440,DOWN,RIGHT,70,60,22,True,True,False,True,1084,1083,False,False,DOWN,DOWN
70,200,70,190,100,10,UP,RIGHT,220,210,10,True,True,True,False,353,352,True,False,UP,UP
20,320,20,330,30,410,DOWN,RIGHT,100,90,41,True,True,False,True,2319,2318,True,False,DOWN,DOWN
420,120,420,130,340,300,DOWN,LEFT,260,250,5,True,True,False,True,123,122,False,False,DOWN,DOWN
390,290,390,280,390,260,UP,EQUAL,30,20,38,True,True,True,False,2134,2133,False,False,UP,UP
120,190,130,190,460,440,DOWN,RIGHT,590,580,58,True,False,True,True,3173,3172,True,False,RIGHT,RIGHT
340,90,330,90,170,100,DOWN,LEFT,180,170,6,True,True,True,False,175,174,True,False,UP,LEFT
270,440,270,430,40,210,UP,LEFT,460,450,45,True,False,True,True,2490,2489,False,False,RIGHT,UP
230,230,240,230,460,190,UP,RIGHT,270,260,20,True,False,True,True,978,977,False,False,RIGHT,RIGHT
370,420,360,420,360,430,DOWN,LEFT,20,10,56,False,True,True,True,3071,3070,True,False,LEFT,LEFT
60,50,60,60,60,180,DOWN,EQUAL,130,120,14,True,True,False,True,571,570,True,False,DOWN,DOWN
120,170,120,160,280,160,UP,RIGHT,170,160,32,False,True,True,True,1753,1752,False,False,LEFT,UP
370,220,370,230,370,230,DOWN,EQUAL,10,0,50,True,True,False,True,2703,2803,False,False,DOWN,DOWN
270,360,270,350,40,210,UP,LEFT,380,370,45,True,True,True,False,2482,2481,False,False,UP,UP
180,330,180,340,180,360,DOWN,EQUAL,30,20,53,True,True,False,True,2898,2897,True,False,DOWN,DOWN
70,300,80,300,210,440,DOWN,RIGHT,280,270,44,True,False,True,True,2423,2422,True,False,RIGHT,RIGHT
430,240,440,240,370,230,UP,LEFT,70,80,50,True,False,True,True,2757,2756,True,False,RIGHT,RIGHT
340,10,330,10,190,190,DOWN,LEFT,330,320,19,False,True,True,True,920,919,False,False,LEFT,LEFT
310,310,320,310,430,320,DOWN,RIGHT,130,120,46,True,False,True,True,2506,2505,True,False,RIGHT,RIGHT
160,370,150,370,100,370,EQUAL,LEFT,60,50,9,False,True,True,True,278,277,True,False,LEFT,LEFT
150,210,140,210,40,400,DOWN,LEFT,300,290,39,False,True,True,True,2203,2202,False,False,LEFT,LEFT
110,80,120,80,180,80,EQUAL,RIGHT,70,60,11,True,False,True,True,394,393,True,False,RIGHT,RIGHT
110,320,120,320,80,410,DOWN,LEFT,120,130,34,True,False,True,True,1853,1852,False,False,RIGHT,RIGHT
190,170,190,180,190,190,DOWN,EQUAL,20,10,19,True,True,False,True,887,886,False,False,DOWN,DOWN
100,420,90,420,160,410,UP,RIGHT,70,80,54,False,True,True,True,2982,2981,True,False,LEFT,LEFT
190,430,190,440,210,440,DOWN,RIGHT,30,20,44,True,True,False,True,2398,2397,True,False,DOWN,DOWN
180,50,190,50,390,80,DOWN,RIGHT,240,230,55,True,False,True,True,3030,3029,False,False,RIGHT,RIGHT
160,170,160,160,390,80,UP,RIGHT,320,310,55,True,True,True,False,3044,3043,False,False,UP,UP
150,450,160,450,270,380,UP,RIGHT,190,180,35,True,False,True,True,1921,1920,False,False,RIGHT,RIGHT
100,240,90,240,40,240,EQUAL,LEFT,60,50,57,True,True,False,True,3095,3094,True,False,DOWN,LEFT
170,160,170,150,170,100,UP,EQUAL,60,50,6,True,False,True,True,149,148,True,False,RIGHT,UP
40,280,40,290,40,400,DOWN,EQUAL,120,110,39,True,True,False,True,2185,2184,True,False,DOWN,DOWN
250,450,240,450,310,120,UP,RIGHT,390,400,48,False,True,True,True,2664,2663,False,False,LEFT,LEFT
140,170,130,170,280,160,UP,RIGHT,150,160,32,False,True,True,True,1755,1754,False,False,LEFT,LEFT
450,170,450,180,120,80,UP,LEFT,420,430,61,True,True,False,True,3355,3354,True,True,DOWN,DOWN
160,280,150,280,30,410,DOWN,LEFT,260,250,41,False,True,True,True,2337,2336,True,False,LEFT,LEFT
210,370,200,370,100,370,EQUAL,LEFT,110,100,9,False,True,True,True,283,282,True,False,LEFT,LEFT
240,120,230,120,120,70,UP,LEFT,170,160,31,False,True,True,True,1719,1718,False,False,LEFT,LEFT
400,180,400,190,390,170,UP,LEFT,20,30,49,True,True,False,True,2689,2688,False,False,DOWN,DOWN
380,190,390,190,460,440,DOWN,RIGHT,330,320,58,True,False,True,True,3147,3146,True,False,RIGHT,RIGHT
320,270,320,260,120,50,EQUAL,EQUAL,420,410,27,True,True,True,False,1438,1437,True,False,UP,UP
430,390,430,380,40,240,UP,LEFT,540,530,57,True,True,True,False,3145,3144,True,False,UP,UP
420,60,420,70,100,370,DOWN,LEFT,630,620,9,True,True,False,True,335,334,False,False,DOWN,DOWN
120,280,110,280,10,460,DOWN,LEFT,290,280,25,False,True,True,True,1317,1316,True,False,LEFT,LEFT
390,150,390,160,360,430,DOWN,LEFT,310,300,56,True,True,False,True,3100,3099,False,False,DOWN,DOWN
120,230,110,230,40,240,DOWN,LEFT,90,80,57,False,True,True,True,3098,3097,True,False,LEFT,LEFT
370,150,380,150,460,20,UP,RIGHT,220,210,18,True,False,True,True,854,853,True,False,RIGHT,RIGHT
340,430,350,430,360,430,EQUAL,RIGHT,20,10,56,True,False,False,True,3057,3056,False,False,RIGHT,RIGHT
200,140,200,150,50,250,DOWN,LEFT,260,250,7,True,True,False,True,229,228,False,False,DOWN,DOWN
220,370,220,360,220,360,UP,EQUAL,10,0,40,True,True,True,False,2251,2351,True,False,UP,UP
140,0,130,0,130,10,DOWN,LEFT,20,10,3,False,True,False,True,-19,0,False,False,LEFT,LEFT
150,310,150,320,160,420,DOWN,RIGHT,120,110,43,True,True,False,True,2377,2376,False,False,DOWN,DOWN
100,390,100,400,110,440,DOWN,RIGHT,60,50,22,True,True,False,True,1083,1082,False,False,DOWN,DOWN
440,390,440,400,390,260,UP,LEFT,180,190,38,True,True,False,True,2177,2176,False,False,DOWN,DOWN
70,260,70,250,100,10,UP,RIGHT,280,270,10,True,True,True,False,359,358,True,False,UP,UP
280,80,280,90,270,120,DOWN,LEFT,50,40,30,True,True,False,True,1626,1625,False,False,DOWN,DOWN
180,360,170,360,100,50,UP,LEFT,390,380,52,False,True,True,True,2872,2871,False,False,LEFT,LEFT
30,280,20,280,10,460,DOWN,LEFT,200,190,25,False,True,True,True,1308,1307,True,False,LEFT,LEFT
130,410,120,410,30,410,EQUAL,LEFT,100,90,41,False,True,True,False,2293,2292,True,True,LEFT,LEFT
70,210,60,210,40,400,DOWN,LEFT,220,210,39,False,True,True,True,2195,2194,False,False,LEFT,LEFT
360,90,350,90,370,230,DOWN,RIGHT,150,160,50,False,True,True,True,2731,2730,True,False,LEFT,LEFT
10,230,10,220,80,410,DOWN,RIGHT,250,260,34,True,True,True,False,1874,1873,True,False,UP,UP
430,290,430,280,40,240,UP,LEFT,440,430,57,True,True,True,False,3135,3134,True,False,UP,UP
320,330,310,330,20,330,EQUAL,LEFT,300,290,33,True,True,False,True,1814,1813,False,False,DOWN,LEFT
210,260,200,260,150,260,EQUAL,LEFT,60,50,21,False,True,True,True,1014,1013,False,False,LEFT,LEFT
110,300,120,300,210,440,DOWN,RIGHT,240,230,44,True,False,True,True,2419,2418,True,False,RIGHT,RIGHT
330,90,320,90,370,230,DOWN,RIGHT,180,190,50,False,True,True,True,2728,2727,True,False,LEFT,LEFT
140,170,140,160,260,150,UP,RIGHT,140,130,15,True,True,True,False,642,641,True,False,UP,UP
450,160,450,170,120,80,UP,LEFT,410,420,61,True,True,False,True,3356,3355,True,True,DOWN,DOWN
280,150,290,150,460,20,UP,RIGHT,310,300,18,True,True,True,False,863,862,True,False,UP,RIGHT
20,400,20,410,30,410,DOWN,RIGHT,20,10,41,True,True,False,True,2311,2310,True,False,DOWN,DOWN
320,240,320,250,20,330,DOWN,LEFT,390,380,33,True,True,False,True,1823,1822,False,False,DOWN,DOWN
350,430,340,430,390,260,UP,RIGHT,210,220,38,False,True,True,True,2164,2163,True,False,LEFT,LEFT
40,230,40,240,40,400,DOWN,EQUAL,170,160,39,True,True,False,True,2190,2189,True,False,DOWN,DOWN
50,470,60,470,320,270,UP,RIGHT,470,460,26,True,False,True,False,1384,0,True,False,RIGHT,RIGHT
320,260,320,270,20,330,DOWN,LEFT,370,360,33,True,True,False,True,1821,1820,False,False,DOWN,DOWN
220,420,220,430,210,440,DOWN,LEFT,30,20,44,True,False,True,True,2460,2459,False,False,RIGHT,DOWN
460,230,460,220,120,80,UP,LEFT,490,480,61,True,False,True,False,3346,3345,False,False,UP,UP
130,280,120,280,30,410,DOWN,LEFT,230,220,41,False,True,True,True,2334,2333,True,False,LEFT,LEFT
420,240,420,250,100,370,DOWN,LEFT,450,440,9,True,True,False,True,317,316,False,False,DOWN,DOWN
180,320,180,330,180,360,DOWN,EQUAL,40,30,53,True,True,False,True,2899,2898,True,False,DOWN,DOWN
420,250,420,260,100,370,DOWN,LEFT,440,430,9,True,True,False,True,316,315,False,False,DOWN,DOWN
80,70,90,70,220,70,EQUAL,RIGHT,140,130,29,True,False,True,True,1546,1545,False,False,RIGHT,RIGHT
110,300,120,300,290,50,UP,RIGHT,430,420,42,True,False,True,True,2365,2364,False,False,RIGHT,RIGHT
100,30,110,30,400,20,UP,RIGHT,310,300,8,True,False,True,True,275,274,True,False,RIGHT,RIGHT
390,350,390,360,360,430,DOWN,LEFT,110,100,56,True,True,False,True,3080,3079,False,False,DOWN,DOWN
310,230,300,230,40,240,DOWN,LEFT,280,270,57,False,True,True,True,3117,3116,True,False,LEFT,LEFT
60,250,60,260,80,410,DOWN,RIGHT,180,170,34,True,True,False,True,1865,1864,True,True,DOWN,DOWN
200,10,190,10,190,190,DOWN,LEFT,190,180,19,False,True,True,True,906,905,False,False,LEFT,LEFT
110,280,110,270,100,50,UP,LEFT,240,230,52,True,True,True,False,2857,2856,True,False,UP,UP
330,300,320,300,280,210,UP,LEFT,140,130,17,False,True,True,True,782,781,False,False,LEFT,LEFT
20,30,30,30,220,70,DOWN,RIGHT,240,230,29,True,False,True,True,1556,1555,True,False,RIGHT,RIGHT
200,120,190,120,30,440,DOWN,LEFT,490,480,12,False,True,True,True,478,477,False,False,LEFT,LEFT
440,340,440,350,440,370,DOWN,EQUAL,30,20,37,True,True,False,True,2081,2080,False,False,DOWN,DOWN
170,70,170,60,50,250,DOWN,LEFT,300,310,7,True,True,True,False,241,240,True,False,UP,UP
390,190,390,180,390,170,UP,EQUAL,20,10,49,False,True,True,False,2681,2680,True,True,UP,UP
50,60,50,50,400,20,UP,RIGHT,390,380,8,True,True,True,False,283,282,True,False,UP,UP
40,260,40,270,30,440,DOWN,LEFT,190,180,12,True,True,False,True,448,447,False,False,DOWN,DOWN
330,150,340,150,460,20,UP,RIGHT,260,250,18,True,False,True,True,858,857,True,False,RIGHT,RIGHT
190,20,190,10,130,10,UP,LEFT,70,60,3,True,True,True,False,-12,-13,False,False,UP,UP
260,410,270,410,310,120,UP,RIGHT,340,330,48,True,False,True,True,2655,2654,True,True,RIGHT,RIGHT
240,450,250,450,270,380,UP,RIGHT,100,90,35,True,False,True,True,1912,1911,False,False,RIGHT,RIGHT
60,90,60,100,60,180,DOWN,EQUAL,90,80,14,True,True,False,True,567,566,True,False,DOWN,DOWN
360,310,350,310,340,300,UP,LEFT,30,20,5,False,True,True,True,98,97,True,False,LEFT,LEFT
100,110,100,100,100,50,UP,EQUAL,60,50,52,True,True,True,False,2839,2838,False,False,UP,UP
420,210,420,220,340,300,DOWN,LEFT,170,160,5,True,True,False,True,114,113,False,False,DOWN,DOWN
320,220,320,210,310,120,UP,LEFT,110,100,48,True,True,True,False,2630,2629,False,False,UP,UP
320,130,330,130,390,170,DOWN,RIGHT,110,100,49,True,False,True,True,2702,2701,False,False,RIGHT,RIGHT
80,410,80,420,270,380,EQUAL,EQUAL,220,230,35,True,True,False,True,1932,1931,False,False,DOWN,DOWN
160,50,150,50,120,50,EQUAL,LEFT,40,30,27,False,True,True,True,1398,1397,False,False,LEFT,LEFT
420,250,420,260,340,300,DOWN,LEFT,130,120,5,True,True,False,True,110,109,False,False,DOWN,DOWN
390,230,380,230,40,240,DOWN,LEFT,360,350,57,False,True,True,True,3125,3124,True,False,LEFT,LEFT
120,30,120,40,130,10,UP,RIGHT,30,40,3,True,True,False,True,-24,-25,True,False,DOWN,DOWN
110,60,110,50,100,10,UP,LEFT,60,50,10,False,True,True,False,313,312,True,False,UP,UP
160,450,170,450,270,380,UP,RIGHT,180,170,35,True,False,True,True,1920,1919,False,False,RIGHT,RIGHT
120,60,120,50,280,160,DOWN,RIGHT,260,270,32,True,True,True,False,1802,1801,True,False,UP,UP
190,200,190,210,460,190,UP,RIGHT,280,290,20,True,True,False,True,985,984,False,False,DOWN,DOWN
390,0,400,0,420,20,DOWN,RIGHT,50,40,4,True,False,False,True,37,0,False,False,RIGHT,RIGHT
460,160,450,160,150,260,DOWN,LEFT,410,400,21,True,True,True,False,1049,1048,False,False,UP,LEFT
270,10,270,20,400,20,DOWN,RIGHT,140,130,8,True,False,True,True,256,255,False,False,RIGHT,DOWN
190,340,190,350,210,440,DOWN,RIGHT,120,110,44,True,True,False,True,2407,2406,True,False,DOWN,DOWN
60,260,50,260,50,250,UP,LEFT,20,10,7,False,True,True,True,203,202,True,False,LEFT,LEFT
170,450,160,450,210,440,UP,RIGHT,50,60,44,False,True,True,True,2452,2451,False,False,LEFT,LEFT
110,260,100,260,110,440,DOWN,EQUAL,180,190,22,False,True,True,True,1105,1104,False,False,LEFT,LEFT
350,440,350,430,350,310,UP,EQUAL,130,120,23,True,False,True,True,1154,1153,False,False,RIGHT,UP
200,410,210,410,220,360,UP,RIGHT,70,60,40,True,False,True,True,2257,2256,True,False,RIGHT,RIGHT
320,310,330,310,430,320,DOWN,RIGHT,120,110,46,True,False,True,True,2505,2504,True,False,RIGHT,RIGHT
130,30,140,30,400,20,UP,RIGHT,280,270,8,True,False,True,True,272,271,True,False,RIGHT,RIGHT
70,280,60,280,10,460,DOWN,LEFT,240,230,25,False,True,True,True,1312,1311,True,False,LEFT,LEFT
290,300,280,300,280,210,UP,LEFT,100,90,17,False,True,True,True,778,777,False,False,LEFT,LEFT
370,230,360,230,40,240,DOWN,LEFT,340,330,57,False,True,True,True,3123,3122,True,False,LEFT,LEFT
360,330,370,330,440,370,DOWN,RIGHT,120,110,37,True,False,True,True,2090,2089,False,False,RIGHT,RIGHT
130,50,130,40,130,10,UP,EQUAL,40,30,3,True,True,True,False,-33,-34,True,False,UP,UP
430,300,430,290,40,240,UP,LEFT,450,440,57,True,True,True,False,3136,3135,True,False,UP,UP
330,50,340,50,390,80,DOWN,RIGHT,90,80,55,True,False,True,True,3015,3014,False,False,RIGHT,RIGHT
180,290,180,300,180,360,DOWN,EQUAL,70,60,53,True,True,False,True,2902,2901,True,False,DOWN,DOWN
380,230,390,230,460,190,UP,RIGHT,120,110,20,True,False,True,True,963,962,False,False,RIGHT,RIGHT
80,270,80,280,80,410,DOWN,EQUAL,140,130,34,True,False,True,True,1861,1860,False,True,RIGHT,DOWN
180,60,190,60,50,250,DOWN,LEFT,320,330,7,True,False,True,True,239,238,False,False,RIGHT,RIGHT
70,190,70,180,100,10,UP,RIGHT,210,200,10,True,True,True,False,352,351,True,False,UP,UP
280,190,280,180,460,20,UP,RIGHT,350,340,18,True,True,True,False,867,866,True,False,UP,UP
110,80,110,70,100,10,UP,LEFT,80,70,10,False,True,True,False,315,314,True,False,UP,UP
460,20,460,10,190,190,EQUAL,EQUAL,440,450,19,True,True,True,False,933,932,False,False,UP,UP
190,330,180,330,20,330,EQUAL,LEFT,170,160,33,False,True,True,True,1801,1800,False,False,LEFT,LEFT
180,80,180,90,180,360,DOWN,EQUAL,280,270,53,True,True,False,True,2923,2922,True,True,DOWN,DOWN
320,90,310,90,170,100,DOWN,LEFT,160,150,6,False,True,True,True,173,172,False,False,LEFT,LEFT
280,90,280,100,270,120,DOWN,LEFT,40,30,30,True,True,False,True,1625,1624,False,False,DOWN,DOWN
390,340,390,330,390,260,UP,EQUAL,80,70,38,True,True,True,False,2139,2138,False,False,UP,UP
60,60,60,70,220,70,DOWN,RIGHT,170,160,29,True,True,False,True,1549,1548,True,False,DOWN,DOWN
80,440,90,440,130,70,UP,RIGHT,420,410,13,True,False,True,True,525,524,False,False,RIGHT,RIGHT
60,240,50,240,40,240,EQUAL,LEFT,20,10,57,False,True,True,True,3091,3090,False,False,LEFT,LEFT
60,40,60,50,60,180,DOWN,EQUAL,140,130,14,True,True,False,True,572,571,True,False,DOWN,DOWN
10,80,10,70,220,70,UP,RIGHT,220,210,29,True,True,True,False,1562,1561,False,False,UP,UP
320,470,320,460,320,270,UP,EQUAL,200,190,26,True,False,True,False,1357,0,True,False,RIGHT,UP
190,180,190,190,190,190,DOWN,EQUAL,10,0,19,True,True,False,True,886,986,False,False,DOWN,DOWN
250,0,260,0,420,20,DOWN,RIGHT,190,180,4,True,False,False,True,51,0,False,False,RIGHT,RIGHT
150,80,160,80,180,80,EQUAL,RIGHT,30,20,11,True,False,True,True,390,389,True,False,RIGHT,RIGHT
430,440,430,450,280,450,DOWN,LEFT,160,150,47,True,True,False,True,2582,2581,False,False,DOWN,DOWN
140,40,150,40,280,160,DOWN,RIGHT,260,250,32,True,False,True,True,1798,1797,True,False,RIGHT,RIGHT
440,160,440,170,450,270,DOWN,RIGHT,120,110,16,True,True,False,True,708,707,False,False,DOWN,DOWN
420,230,430,230,460,190,UP,RIGHT,80,70,20,True,False,True,True,959,958,False,False,RIGHT,RIGHT
70,90,70,80,100,10,UP,RIGHT,110,100,10,True,True,True,False,342,341,True,False,UP,UP
180,340,180,350,180,360,DOWN,EQUAL,20,10,53,True,True,False,True,2897,2896,True,False,DOWN,DOWN
260,470,270,470,320,270,UP,RIGHT,260,250,26,True,False,True,False,1363,0,True,False,RIGHT,RIGHT
220,430,220,440,210,440,DOWN,LEFT,20,10,44,True,True,False,True,2459,2458,False,False,DOWN,DOWN
350,420,350,410,350,310,UP,EQUAL,110,100,23,True,True,True,False,1152,1151,True,False,UP,UP
40,370,30,370,30,440,DOWN,LEFT,80,70,12,True,True,False,True,437,436,False,False,DOWN,LEFT
50,180,50,170,400,20,UP,RIGHT,510,500,8,True,True,True,False,295,294,True,False,UP,UP
380,450,380,440,380,200,UP,EQUAL,250,240,59,False,True,True,True,3206,3205,False,True,LEFT,UP
460,230,460,220,460,190,UP,EQUAL,40,30,20,True,False,True,True,955,954,False,False,RIGHT,UP
110,190,120,190,460,440,DOWN,RIGHT,600,590,58,True,False,True,True,3174,3173,True,False,RIGHT,RIGHT
40,190,50,190,460,440,DOWN,RIGHT,670,660,58,True,False,True,True,3181,3180,True,False,RIGHT,RIGHT
50,190,50,180,400,20,UP,RIGHT,520,510,8,True,True,True,False,296,295,True,False,UP,UP
270,360,270,350,300,330,UP,RIGHT,60,50,36,True,True,True,False,2001,2000,True,False,UP,UP
70,230,70,220,100,10,UP,RIGHT,250,240,10,True,True,True,False,356,355,True,False,UP,UP
460,120,460,110,460,20,UP,EQUAL,100,90,18,True,True,True,False,842,841,False,False,UP,UP
290,140,290,150,280,160,DOWN,LEFT,30,20,32,True,True,False,True,1773,1772,False,False,DOWN,DOWN
390,420,380,420,360,430,DOWN,LEFT,40,30,56,True,True,False,True,3073,3072,False,False,DOWN,LEFT
40,140,40,150,30,440,DOWN,LEFT,310,300,12,True,True,False,True,460,459,False,False,DOWN,DOWN
320,90,320,80,120,50,UP,LEFT,240,230,27,True,True,True,False,1420,1419,True,False,UP,UP
160,220,160,210,390,80,UP,RIGHT,370,360,55,True,True,True,False,3049,3048,False,False,UP,UP
270,430,270,420,270,380,UP,EQUAL,50,40,35,True,True,True,False,1907,1906,True,False,UP,UP
250,410,260,410,310,120,UP,RIGHT,350,340,48,True,False,True,True,2656,2655,True,True,RIGHT,RIGHT
50,160,50,150,400,20,UP,RIGHT,490,480,8,True,True,True,False,293,292,True,False,UP,UP
120,260,120,250,130,70,UP,RIGHT,200,190,13,True,True,True,False,503,502,False,False,UP,UP
440,200,440,210,450,270,DOWN,RIGHT,80,70,16,True,True,False,True,704,703,False,False,DOWN,DOWN
330,360,320,360,100,50,UP,LEFT,540,530,52,False,True,True,True,2887,2886,False,False,LEFT,LEFT
380,430,380,420,380,200,UP,EQUAL,230,220,59,True,True,True,False,3204,3203,True,True,UP,UP
170,80,180,80,180,80,EQUAL,RIGHT,10,0,11,True,False,True,True,388,488,True,False,RIGHT,RIGHT
120,50,120,40,280,160,DOWN,RIGHT,270,280,32,True,True,True,False,1801,1800,True,False,UP,UP
220,330,220,320,30,410,DOWN,LEFT,270,280,41,True,True,True,False,2348,2347,True,False,UP,UP
50,100,50,90,400,20,UP,RIGHT,430,420,8,True,True,True,False,287,286,True,False,UP,UP
400,170,400,180,390,170,EQUAL,LEFT,10,20,49,True,True,False,True,2690,2689,False,False,DOWN,DOWN
50,80,50,70,400,20,UP,RIGHT,410,400,8,True,True,True,False,285,284,True,False,UP,UP
50,350,50,340,210,440,DOWN,RIGHT,250,260,44,True,True,True,False,2430,2429,True,False,UP,UP
300,210,290,210,40,400,DOWN,LEFT,450,440,39,False,True,True,True,2218,2217,False,False,LEFT,LEFT
70,10,70,20,180,80,DOWN,RIGHT,180,170,11,False,True,True,True,405,404,False,False,LEFT,DOWN
190,450,200,450,270,380,UP,RIGHT,150,140,35,True,False,True,True,1917,1916,False,False,RIGHT,RIGHT
440,150,450,150,460,20,UP,RIGHT,150,140,18,True,False,True,True,847,846,True,False,RIGHT,RIGHT
130,90,130,80,130,70,UP,EQUAL,20,10,13,True,True,True,False,485,484,False,False,UP,UP
290,350,300,350,390,260,UP,RIGHT,190,180,38,True,True,True,False,2150,2149,True,True,UP,RIGHT
390,240,400,240,370,230,UP,LEFT,30,40,50,True,False,True,True,2761,2760,True,False,RIGHT,RIGHT
60,300,70,300,290,50,UP,RIGHT,480,470,42,True,False,True,True,2370,2369,False,False,RIGHT,RIGHT
240,170,230,170,280,160,UP,RIGHT,50,60,32,False,True,True,True,1765,1764,False,False,LEFT,LEFT
310,330,320,330,440,370,DOWN,RIGHT,170,160,37,True,False,True,True,2095,2094,False,False,RIGHT,RIGHT
150,410,160,410,220,360,UP,RIGHT,120,110,40,True,False,True,True,2262,2261,True,False,RIGHT,RIGHT
450,230,450,240,120,80,UP,LEFT,480,490,61,True,True,False,True,3349,3348,True,False,DOWN,DOWN
320,150,310,150,310,120,UP,LEFT,40,30,48,True,True,True,False,2623,2622,False,False,UP,LEFT
60,100,60,110,60,180,DOWN,EQUAL,80,70,14,True,True,False,True,566,565,True,False,DOWN,DOWN
390,200,390,210,360,430,DOWN,LEFT,260,250,56,True,True,False,True,3095,3094,False,False,DOWN,DOWN
320,210,320,220,20,330,DOWN,LEFT,420,410,33,True,True,False,True,1826,1825,False,False,DOWN,DOWN
110,120,100,120,30,440,DOWN,LEFT,400,390,12,False,True,True,True,469,468,False,False,LEFT,LEFT
160,0,170,0,420,20,DOWN,RIGHT,280,270,4,True,False,False,True,60,0,False,False,RIGHT,RIGHT
290,170,280,170,280,160,UP,LEFT,20,10,32,True,True,False,True,1770,1769,False,False,DOWN,LEFT
370,50,380,50,390,80,DOWN,RIGHT,50,40,55,True,False,True,True,3011,3010,False,False,RIGHT,RIGHT
130,120,120,120,120,70,UP,LEFT,60,50,31,False,True,True,True,1708,1707,False,False,LEFT,LEFT
190,20,190,10,400,20,EQUAL,RIGHT,210,220,8,True,True,True,False,265,264,False,False,UP,UP
180,220,180,230,180,360,DOWN,EQUAL,140,130,53,True,True,False,True,2909,2908,True,False,DOWN,DOWN
300,50,310,50,310,120,DOWN,RIGHT,80,70,48,True,True,True,False,2611,2610,False,False,UP,RIGHT
400,200,400,210,390,170,UP,LEFT,40,50,49,True,True,False,True,2687,2686,False,False,DOWN,DOWN
350,150,360,150,460,20,UP,RIGHT,240,230,18,True,False,True,True,856,855,True,False,RIGHT,RIGHT
20,340,20,350,30,410,DOWN,RIGHT,80,70,41,True,True,False,True,2317,2316,True,False,DOWN,DOWN
380,300,370,300,280,210,UP,LEFT,190,180,17,False,True,True,True,787,786,False,False,LEFT,LEFT
280,240,280,230,280,210,UP,EQUAL,30,20,17,True,True,True,False,771,770,True,False,UP,UP
320,150,330,150,450,270,DOWN,RIGHT,250,240,16,True,False,True,True,721,720,False,False,RIGHT,RIGHT
320,60,320,50,120,50,UP,LEFT,210,200,27,True,True,True,False,1417,1416,True,False,UP,UP
200,330,190,330,20,330,EQUAL,LEFT,180,170,33,False,True,True,True,1802,1801,False,False,LEFT,LEFT
240,360,230,360,100,50,UP,LEFT,450,440,52,False,True,True,True,2878,2877,False,False,LEFT,LEFT
60,220,70,220,260,150,UP,RIGHT,270,260,15,True,True,False,True,655,654,True,False,DOWN,RIGHT
200,110,200,120,50,250,DOWN,LEFT,290,280,7,True,True,False,True,232,231,False,False,DOWN,DOWN
180,210,180,220,180,360,DOWN,EQUAL,150,140,53,True,True,False,True,2910,2909,True,False,DOWN,DOWN
300,430,290,430,390,260,UP,RIGHT,260,270,38,False,True,True,True,2159,2158,True,False,LEFT,LEFT
450,360,450,370,460,440,DOWN,RIGHT,90,80,58,True,True,False,True,3123,3122,True,False,DOWN,DOWN
60,70,70,70,220,70,EQUAL,RIGHT,160,150,29,True,True,False,True,1548,1547,True,False,DOWN,RIGHT
170,260,160,260,50,250,UP,LEFT,130,120,7,False,True,True,True,214,213,True,False,LEFT,LEFT
70,280,70,270,100,10,UP,RIGHT,300,290,10,True,True,True,False,361,360,True,False,UP,UP
440,400,440,410,390,260,UP,LEFT,190,200,38,True,True,False,True,2176,2175,False,False,DOWN,DOWN
370,230,370,240,370,330,EQUAL,EQUAL,100,90,51,True,True,False,True,2803,2802,False,False,DOWN,DOWN
390,70,390,80,390,80,DOWN,EQUAL,10,0,55,True,True,False,True,3007,3107,False,False,DOWN,DOWN
120,20,120,30,100,10,UP,LEFT,30,40,10,True,True,False,True,326,325,True,False,DOWN,DOWN
200,310,210,310,430,320,DOWN,RIGHT,240,230,46,True,False,True,True,2517,2516,True,False,RIGHT,RIGHT
180,410,190,410,220,360,UP,RIGHT,90,80,40,True,False,True,True,2259,2258,True,False,RIGHT,RIGHT
320,280,310,280,180,280,EQUAL,LEFT,140,130,24,False,True,True,True,1236,1235,True,False,LEFT,LEFT
80,30,70,30,60,180,DOWN,LEFT,170,160,14,False,True,True,True,575,574,False,False,LEFT,LEFT
310,370,300,370,100,370,EQUAL,LEFT,210,200,9,False,True,True,True,293,292,True,False,LEFT,LEFT
300,230,310,230,460,190,UP,RIGHT,200,190,20,True,False,True,True,971,970,False,False,RIGHT,RIGHT
450,160,450,150,370,230,DOWN,LEFT,150,160,50,True,True,True,False,2747,2746,True,False,UP,UP
440,230,450,230,460,190,UP,RIGHT,60,50,20,True,False,True,True,957,956,False,False,RIGHT,RIGHT
430,230,420,230,40,240,DOWN,LEFT,400,390,57,True,True,True,False,3129,3128,True,False,UP,LEFT
70,140,70,130,100,10,UP,RIGHT,160,150,10,True,True,True,False,347,346,True,False,UP,UP
160,150,160,160,170,100,UP,RIGHT,60,70,6,True,True,False,True,151,150,False,False,DOWN,DOWN
450,190,450,200,460,440,DOWN,RIGHT,260,250,58,True,False,True,True,3140,3139,True,False,RIGHT,DOWN
300,450,290,450,280,450,EQUAL,LEFT,20,10,47,False,True,True,True,2568,2567,False,False,LEFT,LEFT
110,330,100,330,20,330,EQUAL,LEFT,90,80,33,False,True,True,True,1793,1792,False,False,LEFT,LEFT
220,190,230,190,460,440,DOWN,RIGHT,490,480,58,True,False,True,True,3163,3162,True,False,RIGHT,RIGHT
380,330,390,330,440,370,DOWN,RIGHT,100,90,37,True,False,True,True,2088,2087,False,False,RIGHT,RIGHT
310,100,310,110,310,120,DOWN,EQUAL,20,10,48,True,False,False,True,2605,2604,True,True,DOWN,DOWN
20,110,20,120,10,110,EQUAL,LEFT,10,20,28,True,True,False,True,1479,1478,False,False,DOWN,DOWN
50,280,40,280,10,460,DOWN,LEFT,220,210,25,False,True,True,True,1310,1309,True,False,LEFT,LEFT
210,450,200,450,210,440,UP,EQUAL,10,20,44,False,True,True,True,2456,2455,False,False,LEFT,LEFT
320,230,330,230,460,190,UP,RIGHT,180,170,20,True,False,True,True,969,968,False,False,RIGHT,RIGHT
250,150,260,150,260,150,EQUAL,RIGHT,10,0,15,True,False,True,True,627,727,False,False,RIGHT,RIGHT
220,300,230,300,290,50,UP,RIGHT,320,310,42,True,False,True,True,2354,2353,False,False,RIGHT,RIGHT
190,280,180,280,30,410,DOWN,LEFT,290,280,41,False,True,True,True,2340,2339,True,False,LEFT,LEFT
130,280,120,280,10,460,DOWN,LEFT,300,290,25,False,True,True,True,1318,1317,True,False,LEFT,LEFT
190,260,180,260,150,260,EQUAL,LEFT,40,30,21,False,True,True,True,1012,1011,False,False,LEFT,LEFT
250,70,260,70,270,120,DOWN,RIGHT,70,60,30,True,False,True,True,1630,1629,False,False,RIGHT,RIGHT
100,230,100,240,40,240,DOWN,LEFT,70,60,57,False,True,True,True,3096,3095,True,False,LEFT,DOWN
310,120,310,130,390,170,EQUAL,EQUAL,130,120,49,True,False,False,True,2704,2703,True,True,DOWN,DOWN
80,310,90,310,110,440,DOWN,RIGHT,160,150,22,True,True,False,True,1097,1096,False,False,DOWN,RIGHT
340,230,350,230,460,190,UP,RIGHT,160,150,20,True,False,True,True,967,966,False,False,RIGHT,RIGHT
140,160,140,150,260,150,UP,RIGHT,130,120,15,True,True,True,False,641,640,True,False,UP,UP
350,280,340,280,180,280,EQUAL,LEFT,170,160,24,True,True,True,False,1239,1238,True,False,UP,LEFT
260,210,250,210,40,210,EQUAL,LEFT,220,210,45,False,True,True,True,2466,2465,True,False,LEFT,LEFT
220,450,230,450,270,380,UP,RIGHT,120,110,35,True,False,True,True,1914,1913,False,False,RIGHT,RIGHT
10,440,10,450,10,460,DOWN,EQUAL,20,10,25,True,True,False,True,1290,1289,True,False,DOWN,DOWN
160,310,160,300,390,80,UP,RIGHT,460,450,55,True,True,True,False,3058,3057,False,False,UP,UP
140,70,150,70,220,70,EQUAL,RIGHT,80,70,29,True,False,True,True,1540,1539,False,False,RIGHT,RIGHT
390,220,390,210,40,400,DOWN,LEFT,530,540,39,True,True,True,False,2228,2227,False,False,UP,UP
230,160,240,160,280,160,EQUAL,RIGHT,50,40,32,True,True,False,False,1739,1738,True,False,DOWN,RIGHT
130,120,130,110,130,70,UP,EQUAL,50,40,13,True,True,True,False,488,487,False,False,UP,UP
240,440,250,440,40,210,UP,LEFT,430,440,45,True,False,True,True,2493,2492,False,False,RIGHT,RIGHT
440,80,450,80,120,80,EQUAL,EQUAL,320,330,61,True,False,True,True,3365,3364,True,False,RIGHT,RIGHT
360,260,350,260,150,260,EQUAL,LEFT,210,200,21,False,True,True,True,1029,1028,False,False,LEFT,LEFT
120,60,120,70,130,10,UP,RIGHT,60,70,3,True,True,False,True,-27,-28,True,False,DOWN,DOWN
40,360,40,370,30,440,DOWN,LEFT,90,80,12,True,True,False,True,438,437,False,False,DOWN,DOWN
230,260,220,260,150,260,EQUAL,LEFT,80,70,21,False,True,True,True,1016,1015,False,False,LEFT,LEFT
250,40,260,40,280,160,DOWN,RIGHT,150,140,32,True,False,True,True,1787,1786,True,False,RIGHT,RIGHT
50,90,40,90,10,110,DOWN,LEFT,60,50,28,False,True,True,True,1484,1483,False,False,LEFT,LEFT
150,0,140,0,130,10,DOWN,LEFT,30,20,3,False,True,False,True,-18,0,False,False,LEFT,LEFT
120,290,120,280,130,70,UP,RIGHT,230,220,13,True,True,True,False,506,505,False,False,UP,UP
110,30,110,20,100,10,UP,LEFT,30,20,10,True,True,True,False,310,309,True,False,UP,UP
70,30,80,30,400,20,UP,RIGHT,340,330,8,True,False,True,True,278,277,True,False,RIGHT,RIGHT
370,90,360,90,370,230,DOWN,EQUAL,140,150,50,False,True,True,True,2732,2731,True,False,LEFT,LEFT
160,150,170,150,280,160,DOWN,RIGHT,130,120,32,True,False,True,True,1747,1746,True,True,RIGHT,RIGHT
120,210,110,210,40,400,DOWN,LEFT,270,260,39,False,True,True,True,2200,2199,False,False,LEFT,LEFT
280,230,270,230,40,240,DOWN,LEFT,250,240,57,False,True,True,True,3114,3113,True,False,LEFT,LEFT
160,390,150,390,80,410,DOWN,LEFT,100,90,34,True,True,False,True,1841,1840,False,False,DOWN,LEFT
340,50,350,50,390,80,DOWN,RIGHT,80,70,55,True,False,True,True,3014,3013,False,False,RIGHT,RIGHT
40,300,50,300,290,50,UP,RIGHT,500,490,42,True,False,True,True,2372,2371,False,False,RIGHT,RIGHT
160,230,150,230,40,240,DOWN,LEFT,130,120,57,False,True,True,True,3102,3101,True,False,LEFT,LEFT
150,340,150,350,160,420,DOWN,RIGHT,90,80,43,True,True,False,True,2374,2373,False,False,DOWN,DOWN
380,240,390,240,370,230,UP,LEFT,20,30,50,True,False,True,True,2762,2761,True,False,RIGHT,RIGHT
280,160,280,150,460,20,UP,RIGHT,320,310,18,True,True,True,False,864,863,True,False,UP,UP
80,120,70,120,30,440,DOWN,LEFT,370,360,12,False,True,True,True,466,465,False,False,LEFT,LEFT
180,200,180,210,180,360,DOWN,EQUAL,160,150,53,True,True,False,True,2911,2910,True,False,DOWN,DOWN
310,150,320,150,450,270,DOWN,RIGHT,260,250,16,True,False,True,True,722,721,False,False,RIGHT,RIGHT
50,280,40,280,30,410,DOWN,LEFT,150,140,41,False,True,True,True,2326,2325,True,False,LEFT,LEFT
270,370,260,370,100,370,EQUAL,LEFT,170,160,9,False,True,True,True,289,288,True,False,LEFT,LEFT
160,60,160,70,160,420,DOWN,EQUAL,360,350,43,True,True,False,True,2405,2404,True,False,DOWN,DOWN
40,210,40,220,40,400,DOWN,EQUAL,190,180,39,False,True,True,True,2192,2191,False,False,LEFT,DOWN
170,100,170,90,50,250,EQUAL,EQUAL,270,280,7,True,True,True,False,244,243,True,False,UP,UP
30,300,40,300,290,50,UP,RIGHT,510,500,42,True,True,True,False,2373,2372,False,False,UP,RIGHT
10,300,10,310,10,460,DOWN,EQUAL,160,150,25,True,True,False,True,1304,1303,True,False,DOWN,DOWN
420,150,420,160,340,300,DOWN,LEFT,230,220,5,True,True,False,True,120,119,False,False,DOWN,DOWN
120,360,110,360,100,50,UP,LEFT,330,320,52,False,True,True,True,2866,2865,False,False,LEFT,LEFT
380,90,370,90,370,230,DOWN,LEFT,150,140,50,False,True,True,True,2733,2732,True,False,LEFT,LEFT
380,300,380,290,380,200,UP,EQUAL,100,90,59,True,True,True,False,3191,3190,True,True,UP,UP
70,260,60,260,50,250,UP,LEFT,30,20,7,False,True,True,True,204,203,True,False,LEFT,LEFT
180,70,180,80,190,190,DOWN,RIGHT,130,120,19,True,True,False,True,898,897,True,False,DOWN,DOWN
60,160,60,170,60,180,DOWN,EQUAL,20,10,14,True,True,False,True,560,559,True,False,DOWN,DOWN
320,300,310,300,280,210,UP,LEFT,130,120,17,False,True,True,True,781,780,False,False,LEFT,LEFT
110,100,110,90,100,10,UP,LEFT,100,90,10,False,True,True,True,317,316,True,False,LEFT,UP
250,40,240,40,120,50,DOWN,LEFT,140,130,27,False,True,True,True,1408,1407,True,False,LEFT,LEFT
380,420,370,420,360,430,DOWN,LEFT,30,20,56,False,True,True,True,3072,3071,True,False,LEFT,LEFT
40,180,40,190,30,440,DOWN,LEFT,270,260,12,True,True,False,True,456,455,False,False,DOWN,DOWN
370,260,370,270,370,330,DOWN,EQUAL,70,60,51,True,True,False,True,2800,2799,False,False,DOWN,DOWN
360,360,350,360,100,50,UP,LEFT,570,560,52,False,True,True,True,2890,2889,False,False,LEFT,LEFT
270,100,270,110,280,160,DOWN,RIGHT,70,60,32,True,True,False,True,1779,1778,True,False,DOWN,DOWN
130,110,130,100,130,70,UP,EQUAL,40,30,13,True,True,True,False,487,486,False,False,UP,UP
320,340,320,330,320,270,UP,EQUAL,70,60,26,True,True,True,False,1344,1343,True,False,UP,UP
260,440,270,440,40,210,UP,LEFT,450,460,45,True,False,True,True,2491,2490,False,False,RIGHT,RIGHT
300,30,310,30,400,20,UP,RIGHT,110,100,8,True,False,True,True,251,250,False,False,RIGHT,RIGHT
200,260,190,260,150,260,EQUAL,LEFT,50,40,21,False,True,True,True,1013,1012,False,False,LEFT,LEFT
360,0,370,0,420,20,DOWN,RIGHT,80,70,4,True,False,False,True,40,0,False,False,RIGHT,RIGHT
370,110,370,120,370,230,DOWN,EQUAL,120,110,50,True,True,False,True,2714,2713,False,True,DOWN,DOWN
380,180,380,190,150,260,DOWN,LEFT,310,300,21,True,True,False,True,1039,1038,True,False,DOWN,DOWN
320,190,330,190,460,440,DOWN,RIGHT,390,380,58,True,False,True,True,3153,3152,True,False,RIGHT,RIGHT
30,350,30,340,290,50,UP,RIGHT,560,550,42,True,False,True,False,2378,2377,False,False,UP,UP
110,450,120,450,270,380,UP,RIGHT,230,220,35,True,False,True,True,1925,1924,False,False,RIGHT,RIGHT
10,280,10,270,80,410,DOWN,RIGHT,200,210,34,True,True,True,False,1879,1878,True,False,UP,UP
20,170,20,180,10,110,UP,LEFT,70,80,28,True,True,False,True,1473,1472,False,False,DOWN,DOWN
320,420,310,420,360,430,DOWN,RIGHT,50,60,56,False,True,True,True,3066,3065,True,False,LEFT,LEFT
210,50,220,50,390,80,DOWN,RIGHT,210,200,55,True,False,True,True,3027,3026,False,False,RIGHT,RIGHT
270,380,270,370,40,210,UP,LEFT,400,390,45,True,True,True,False,2484,2483,False,False,UP,UP
420,60,420,70,340,300,DOWN,LEFT,320,310,5,True,True,False,True,129,128,False,False,DOWN,DOWN
120,470,130,470,320,270,UP,RIGHT,400,390,26,True,False,True,False,1377,0,True,False,RIGHT,RIGHT
370,140,370,150,370,230,DOWN,EQUAL,90,80,50,True,True,False,True,2711,2710,False,False,DOWN,DOWN
280,70,280,80,270,120,DOWN,LEFT,60,50,30,True,False,True,True,1627,1626,False,False,RIGHT,DOWN
30,270,30,280,430,320,DOWN,RIGHT,450,440,46,True,True,False,True,2538,2537,True,False,DOWN,DOWN
130,60,130,50,130,10,UP,EQUAL,50,40,3,True,True,True,False,-32,-33,True,False,UP,UP
40,310,40,320,30,440,DOWN,LEFT,140,130,12,True,True,False,True,443,442,False,False,DOWN,DOWN
450,250,450,260,450,270,DOWN,EQUAL,20,10,16,True,True,False,True,698,697,False,False,DOWN,DOWN
300,10,290,10,190,190,DOWN,LEFT,290,280,19,False,True,True,True,916,915,False,False,LEFT,LEFT
40,440,50,440,130,70,UP,RIGHT,460,450,13,True,False,True,True,529,528,False,False,RIGHT,RIGHT
40,320,40,330,30,440,DOWN,LEFT,130,120,12,True,True,False,True,442,441,False,False,DOWN,DOWN
330,310,340,310,430,320,DOWN,RIGHT,110,100,46,True,False,True,True,2504,2503,True,False,RIGHT,RIGHT
280,150,290,150,450,270,DOWN,RIGHT,290,280,16,True,False,True,True,725,724,False,False,RIGHT,RIGHT
290,360,280,360,100,50,UP,LEFT,500,490,52,False,True,True,True,2883,2882,False,False,LEFT,LEFT
140,230,130,230,40,240,DOWN,LEFT,110,100,57,False,True,True,True,3100,3099,True,False,LEFT,LEFT
270,310,270,300,40,210,UP,LEFT,330,320,45,True,True,True,False,2477,2476,False,False,UP,UP
450,110,450,100,370,230,DOWN,LEFT,200,210,50,True,True,True,False,2742,2741,True,False,UP,UP
40,300,40,310,30,440,DOWN,LEFT,150,140,12,True,True,False,True,444,443,False,False,DOWN,DOWN
370,310,380,310,430,320,DOWN,RIGHT,70,60,46,True,False,True,True,2500,2499,True,False,RIGHT,RIGHT
80,260,80,270,110,440,DOWN,RIGHT,210,200,22,False,True,True,True,1102,1101,False,False,LEFT,DOWN
130,150,130,140,130,70,UP,EQUAL,80,70,13,True,True,True,False,491,490,False,False,UP,UP
40,280,30,280,30,410,DOWN,LEFT,140,130,41,False,True,True,True,2325,2324,True,False,LEFT,LEFT
370,330,370,340,100,50,EQUAL,EQUAL,550,560,52,True,True,False,True,2894,2893,False,False,DOWN,DOWN
110,250,110,240,100,50,UP,LEFT,210,200,52,True,True,True,False,2854,2853,True,False,UP,UP
390,100,390,110,360,430,DOWN,LEFT,360,350,56,True,True,False,True,3105,3104,False,False,DOWN,DOWN
160,140,170,140,260,150,DOWN,RIGHT,110,100,15,True,False,True,True,637,636,False,False,RIGHT,RIGHT
60,90,50,90,10,110,DOWN,LEFT,70,60,28,False,True,True,True,1485,1484,False,False,LEFT,LEFT
330,370,320,370,100,370,EQUAL,LEFT,230,220,9,False,True,True,True,295,294,True,False,LEFT,LEFT
370,130,370,140,370,230,DOWN,EQUAL,100,90,50,True,True,False,True,2712,2711,False,False,DOWN,DOWN
380,410,380,400,380,200,UP,EQUAL,210,200,59,True,True,True,False,3202,3201,True,True,UP,UP
60,30,70,30,400,20,UP,RIGHT,350,340,8,True,False,True,True,279,278,True,False,RIGHT,RIGHT
380,250,380,260,150,260,DOWN,LEFT,240,230,21,True,True,False,True,1032,1031,True,False,DOWN,DOWN
310,30,320,30,400,20,UP,RIGHT,100,90,8,True,False,True,True,250,249,False,False,RIGHT,RIGHT
240,260,230,260,150,260,EQUAL,LEFT,90,80,21,False,True,True,True,1017,1016,False,False,LEFT,LEFT
100,30,90,30,60,180,DOWN,LEFT,190,180,14,False,True,True,True,577,576,False,False,LEFT,LEFT
320,410,320,400,320,270,UP,EQUAL,140,130,26,True,True,True,False,1351,1350,True,False,UP,UP
140,210,130,210,40,400,DOWN,LEFT,290,280,39,False,True,True,True,2202,2201,False,False,LEFT,LEFT
190,10,200,10,400,20,DOWN,RIGHT,220,210,8,True,True,True,False,264,263,False,False,UP,RIGHT
90,310,100,310,430,320,DOWN,RIGHT,350,340,46,True,False,True,True,2528,2527,True,False,RIGHT,RIGHT
200,180,200,190,50,250,DOWN,LEFT,220,210,7,True,True,False,True,225,224,False,False,DOWN,DOWN
240,300,250,300,290,50,UP,RIGHT,300,290,42,True,False,True,True,2352,2351,False,False,RIGHT,RIGHT
130,220,140,220,260,150,UP,RIGHT,200,190,15,True,False,True,True,648,647,True,False,RIGHT,RIGHT
180,140,190,140,260,150,DOWN,RIGHT,90,80,15,True,False,True,True,635,634,False,False,RIGHT,RIGHT
200,450,190,450,210,440,UP,RIGHT,20,30,44,False,True,True,True,2455,2454,False,False,LEFT,LEFT
170,130,170,120,170,100,UP,EQUAL,30,20,6,True,True,True,False,146,145,True,False,UP,UP
280,0,290,0,420,20,DOWN,RIGHT,160,150,4,True,False,False,True,48,0,False,False,RIGHT,RIGHT
120,50,120,60,130,10,UP,RIGHT,50,60,3,True,True,False,True,-26,-27,True,False,DOWN,DOWN
430,270,430,260,40,240,UP,LEFT,420,410,57,True,True,True,False,3133,3132,True,False,UP,UP
430,320,430,330,280,450,EQUAL,EQUAL,280,270,47,True,True,False,True,2594,2593,False,False,DOWN,DOWN
130,420,120,420,160,410,UP,RIGHT,40,50,54,False,True,True,True,2985,2984,True,False,LEFT,LEFT
30,220,30,230,430,320,DOWN,RIGHT,500,490,46,True,True,False,True,2543,2542,True,False,DOWN,DOWN
140,330,130,330,20,330,EQUAL,LEFT,120,110,33,False,True,True,True,1796,1795,False,False,LEFT,LEFT
240,190,250,190,460,440,DOWN,RIGHT,470,460,58,True,False,True,True,3161,3160,True,False,RIGHT,RIGHT
80,290,80,300,80,410,DOWN,EQUAL,120,110,34,True,True,False,True,1859,1858,False,True,DOWN,DOWN
320,250,320,240,120,50,UP,LEFT,400,390,27,True,True,True,False,1436,1435,True,False,UP,UP
80,90,70,90,10,110,DOWN,LEFT,90,80,28,False,True,True,True,1487,1486,False,False,LEFT,LEFT
270,260,270,250,40,210,UP,LEFT,280,270,45,True,True,True,False,2472,2471,False,False,UP,UP
10,320,10,330,10,460,DOWN,EQUAL,140,130,25,True,True,False,True,1302,1301,True,False,DOWN,DOWN
290,270,290,260,290,50,UP,EQUAL,220,210,42,True,True,True,False,2344,2343,False,False,UP,UP
200,10,210,10,400,20,DOWN,RIGHT,210,200,8,True,False,True,True,263,262,False,False,RIGHT,RIGHT
190,160,190,170,190,190,DOWN,EQUAL,30,20,19,True,True,False,True,888,887,False,False,DOWN,DOWN
310,70,310,80,310,120,DOWN,EQUAL,50,40,48,True,False,False,True,2608,2607,True,True,DOWN,DOWN
40,150,40,160,30,440,DOWN,LEFT,300,290,12,True,True,False,True,459,458,False,False,DOWN,DOWN
170,310,180,310,430,320,DOWN,RIGHT,270,260,46,True,False,True,True,2520,2519,True,False,RIGHT,RIGHT
130,210,130,200,130,70,UP,EQUAL,140,130,13,True,True,True,False,497,496,False,False,UP,UP
440,190,440,200,450,270,DOWN,RIGHT,90,80,16,True,True,False,True,705,704,False,False,DOWN,DOWN
50,420,50,410,210,440,DOWN,RIGHT,180,190,44,True,True,True,False,2437,2436,True,False,UP,UP
440,380,440,390,390,260,UP,LEFT,170,180,38,True,True,False,True,2178,2177,False,False,DOWN,DOWN
230,370,220,370,100,370,EQUAL,LEFT,130,120,9,False,True,True,True,285,284,True,False,LEFT,LEFT
350,310,340,310,340,300,UP,LEFT,20,10,5,False,True,True,True,97,96,True,False,LEFT,LEFT
340,150,350,150,450,270,DOWN,RIGHT,230,220,16,True,False,True,True,719,718,False,False,RIGHT,RIGHT
150,150,160,150,280,160,DOWN,RIGHT,140,130,32,True,False,True,True,1748,1747,True,True,RIGHT,RIGHT
50,70,50,60,400,20,UP,RIGHT,400,390,8,True,True,True,False,284,283,True,False,UP,UP
280,270,280,260,280,210,UP,EQUAL,60,50,17,True,True,True,False,774,773,True,False,UP,UP
410,240,420,240,370,230,UP,LEFT,50,60,50,True,False,True,True,2759,2758,True,False,RIGHT,RIGHT
50,310,60,310,430,320,DOWN,RIGHT,390,380,46,True,False,True,True,2532,2531,True,False,RIGHT,RIGHT
180,280,170,280,30,410,DOWN,LEFT,280,270,41,False,True,True,True,2339,2338,True,False,LEFT,LEFT
40,370,40,380,40,400,DOWN,EQUAL,30,20,39,True,True,False,True,2176,2175,True,False,DOWN,DOWN
230,430,230,420,310,120,UP,RIGHT,390,380,48,True,True,True,False,2660,2659,True,False,UP,UP
230,440,240,440,40,210,UP,LEFT,420,430,45,True,False,True,True,2494,2493,False,False,RIGHT,RIGHT
260,450,250,450,310,120,UP,RIGHT,380,390,48,False,True,True,True,2665,2664,False,False,LEFT,LEFT
380,220,380,230,150,260,DOWN,LEFT,270,260,21,True,True,False,True,1035,1034,True,False,DOWN,DOWN
30,280,20,280,30,410,DOWN,EQUAL,130,140,41,False,True,True,True,2324,2323,True,False,LEFT,LEFT
80,390,80,400,80,410,DOWN,EQUAL,20,10,34,False,True,True,True,1833,1832,False,False,LEFT,DOWN
70,270,80,270,80,410,DOWN,RIGHT,150,140,34,True,False,True,True,1862,1861,False,False,RIGHT,RIGHT
30,250,30,260,430,320,DOWN,RIGHT,470,460,46,True,True,False,True,2540,2539,True,False,DOWN,DOWN
170,40,170,50,120,50,DOWN,LEFT,60,50,27,False,True,True,True,1400,1399,True,False,LEFT,DOWN
290,160,290,150,290,50,UP,EQUAL,110,100,42,True,True,True,False,2333,2332,False,False,UP,UP
220,90,220,100,30,440,DOWN,LEFT,540,530,12,True,True,False,True,483,482,False,False,DOWN,DOWN
220,370,210,370,100,370,EQUAL,LEFT,120,110,9,False,True,True,True,284,283,True,False,LEFT,LEFT
110,360,110,350,100,50,UP,LEFT,320,310,52,False,True,True,True,2865,2864,False,False,LEFT,UP
40,240,40,250,30,440,DOWN,LEFT,210,200,12,True,True,False,True,450,449,False,False,DOWN,DOWN
340,180,340,170,170,100,UP,LEFT,250,240,6,True,True,True,False,184,183,True,False,UP,UP
50,240,40,240,40,240,EQUAL,LEFT,10,0,57,False,True,True,True,3090,3190,False,False,LEFT,LEFT
150,410,140,410,30,410,EQUAL,LEFT,120,110,41,True,True,True,False,2295,2294,True,True,UP,LEFT
30,240,20,240,460,440,DOWN,RIGHT,630,640,58,False,True,True,True,3189,3188,False,False,LEFT,LEFT
290,160,300,160,20,330,DOWN,LEFT,440,450,33,True,False,True,True,1834,1833,False,False,RIGHT,RIGHT
300,50,310,50,390,80,DOWN,RIGHT,120,110,55,True,False,True,True,3018,3017,False,False,RIGHT,RIGHT
200,40,190,40,120,50,DOWN,LEFT,90,80,27,False,True,True,True,1403,1402,True,False,LEFT,LEFT
290,420,290,430,360,430,DOWN,RIGHT,80,70,56,False,True,True,True,3063,3062,True,False,LEFT,DOWN
390,210,390,200,390,170,UP,EQUAL,40,30,49,False,True,True,False,2683,2682,True,True,UP,UP
140,390,130,390,80,410,DOWN,LEFT,80,70,34,False,True,True,True,1839,1838,False,False,LEFT,LEFT
440,10,430,10,190,190,DOWN,LEFT,430,420,19,False,True,True,True,930,929,False,False,LEFT,LEFT
130,50,140,50,180,360,DOWN,RIGHT,360,350,53,True,False,True,True,2931,2930,False,False,RIGHT,RIGHT
160,30,160,40,160,420,DOWN,EQUAL,390,380,43,False,True,True,True,2408,2407,False,False,LEFT,DOWN
170,370,160,370,100,370,EQUAL,LEFT,70,60,9,False,True,True,True,279,278,True,False,LEFT,LEFT
160,210,150,210,40,400,DOWN,LEFT,310,300,39,False,True,True,True,2204,2203,False,False,LEFT,LEFT
210,40,220,40,280,160,DOWN,RIGHT,190,180,32,True,False,True,True,1791,1790,True,False,RIGHT,RIGHT
40,160,40,170,30,440,DOWN,LEFT,290,280,12,True,True,False,True,458,457,False,False,DOWN,DOWN
400,450,390,450,380,200,UP,LEFT,270,260,59,False,True,True,True,3208,3207,False,False,LEFT,LEFT
160,120,150,120,120,70,UP,LEFT,90,80,31,False,True,True,True,1711,1710,False,False,LEFT,LEFT
330,150,340,150,450,270,DOWN,RIGHT,240,230,16,True,False,True,True,720,719,False,False,RIGHT,RIGHT
290,400,290,390,390,260,UP,RIGHT,240,230,38,True,True,True,False,2155,2154,True,False,UP,UP
450,280,450,290,280,210,UP,LEFT,240,250,17,True,True,False,True,796,795,False,False,DOWN,DOWN
150,370,150,380,160,420,DOWN,RIGHT,60,50,43,True,True,False,True,2371,2370,False,False,DOWN,DOWN
380,210,380,220,150,260,DOWN,LEFT,280,270,21,True,True,False,True,1036,1035,True,False,DOWN,DOWN
60,440,70,440,130,70,UP,RIGHT,440,430,13,True,False,True,True,527,526,False,False,RIGHT,RIGHT
200,70,200,80,50,250,DOWN,LEFT,330,320,7,True,True,False,True,236,235,False,False,DOWN,DOWN
370,240,380,240,370,230,UP,EQUAL,10,20,50,True,False,True,True,2763,2762,True,False,RIGHT,RIGHT
90,190,100,190,460,440,DOWN,RIGHT,620,610,58,True,False,True,True,3176,3175,True,False,RIGHT,RIGHT
390,330,390,340,360,430,DOWN,LEFT,130,120,56,True,True,False,True,3082,3081,False,False,DOWN,DOWN
450,240,450,250,460,440,DOWN,RIGHT,210,200,58,True,True,False,True,3135,3134,True,False,DOWN,DOWN
60,60,60,70,60,180,DOWN,EQUAL,120,110,14,True,True,False,True,570,569,True,False,DOWN,DOWN
260,310,270,310,430,320,DOWN,RIGHT,180,170,46,True,False,True,True,2511,2510,True,False,RIGHT,RIGHT
270,330,280,330,300,330,EQUAL,RIGHT,30,20,36,True,True,True,False,1998,1997,True,False,UP,RIGHT
180,410,180,420,160,410,EQUAL,LEFT,20,30,54,True,True,False,True,2991,2990,True,False,DOWN,DOWN
420,320,420,330,100,370,DOWN,LEFT,370,360,9,True,True,False,True,309,308,False,False,DOWN,DOWN
360,50,370,50,390,80,DOWN,RIGHT,60,50,55,True,False,True,True,3012,3011,False,False,RIGHT,RIGHT
10,40,10,30,220,70,DOWN,RIGHT,240,250,29,True,True,True,False,1558,1557,False,False,UP,UP
450,120,450,110,370,230,DOWN,LEFT,190,200,50,True,True,True,False,2743,2742,True,False,UP,UP
320,390,320,380,310,120,UP,LEFT,280,270,48,True,True,True,False,2647,2646,False,False,UP,UP
380,130,390,130,390,170,DOWN,RIGHT,50,40,49,True,False,True,True,2696,2695,False,False,RIGHT,RIGHT
170,0,180,0,420,20,DOWN,RIGHT,270,260,4,True,False,False,True,59,0,False,False,RIGHT,RIGHT
390,80,390,90,360,430,EQUAL,EQUAL,380,370,56,True,True,False,True,3107,3106,False,False,DOWN,DOWN
220,320,220,310,30,410,DOWN,LEFT,280,290,41,True,True,True,False,2347,2346,True,False,UP,UP
170,210,160,210,40,400,DOWN,LEFT,320,310,39,False,True,True,True,2205,2204,False,False,LEFT,LEFT
270,310,280,310,430,320,DOWN,RIGHT,170,160,46,True,False,True,True,2510,2509,True,False,RIGHT,RIGHT
230,440,240,440,350,310,UP,RIGHT,250,240,23,True,False,True,True,1166,1165,False,False,RIGHT,RIGHT
40,290,40,300,30,440,DOWN,LEFT,160,150,12,True,True,False,True,445,444,False,False,DOWN,DOWN
40,310,50,310,430,320,DOWN,RIGHT,400,390,46,True,False,True,True,2533,2532,True,True,RIGHT,RIGHT
250,440,260,440,40,210,UP,LEFT,440,450,45,True,False,True,True,2492,2491,False,False,RIGHT,RIGHT
320,290,320,300,20,330,DOWN,LEFT,340,330,33,True,True,False,True,1818,1817,False,False,DOWN,DOWN
440,220,450,220,450,270,DOWN,RIGHT,60,50,16,True,True,False,True,702,701,False,False,DOWN,RIGHT
280,250,280,240,280,210,UP,EQUAL,40,30,17,True,True,True,False,772,771,True,False,UP,UP
360,300,350,300,280,210,UP,LEFT,170,160,17,False,True,True,True,785,784,False,False,LEFT,LEFT
360,150,370,150,460,20,UP,RIGHT,230,220,18,True,False,True,True,855,854,True,False,RIGHT,RIGHT
110,260,110,250,100,50,UP,LEFT,220,210,52,True,True,True,False,2855,2854,True,False,UP,UP
460,10,450,10,190,190,DOWN,LEFT,450,440,19,True,True,True,False,932,931,False,False,UP,LEFT
50,210,40,210,40,400,DOWN,LEFT,200,190,39,False,True,True,True,2193,2192,False,False,LEFT,LEFT
320,280,320,270,310,120,UP,LEFT,170,160,48,True,True,True,False,2636,2635,False,False,UP,UP
410,310,400,310,340,300,UP,LEFT,80,70,5,False,True,True,True,103,102,True,False,LEFT,LEFT
150,410,150,420,160,420,DOWN,RIGHT,20,10,43,True,True,False,True,2367,2366,False,False,DOWN,DOWN
100,440,110,440,110,440,EQUAL,RIGHT,10,0,22,True,True,False,True,1078,1178,False,False,DOWN,RIGHT
410,80,420,80,440,80,EQUAL,RIGHT,30,20,60,True,False,True,True,3267,3266,True,False,RIGHT,RIGHT
130,260,120,260,110,440,DOWN,LEFT,200,190,22,False,True,True,True,1107,1106,False,False,LEFT,LEFT
60,210,50,210,40,210,EQUAL,LEFT,20,10,45,False,True,True,True,2446,2445,True,False,LEFT,LEFT
30,380,30,370,290,50,UP,RIGHT,590,580,42,True,False,True,False,2381,2380,False,False,UP,UP
290,280,290,270,290,50,UP,EQUAL,230,220,42,True,True,True,False,2345,2344,False,False,UP,UP
230,190,240,190,460,440,DOWN,RIGHT,480,470,58,True,False,True,True,3162,3161,True,False,RIGHT,RIGHT
70,220,70,210,100,10,UP,RIGHT,240,230,10,True,True,True,False,355,354,True,False,UP,UP
40,120,40,130,30,440,DOWN,LEFT,330,320,12,False,True,True,True,462,461,False,False,LEFT,DOWN
100,430,100,440,110,440,DOWN,RIGHT,20,10,22,True,True,False,True,1079,1078,False,False,DOWN,DOWN
30,240,30,250,430,320,DOWN,RIGHT,480,470,46,True,True,False,True,2541,2540,True,False,DOWN,DOWN
270,240,270,230,40,210,UP,LEFT,260,250,45,True,True,True,False,2470,2469,False,False,UP,UP
190,140,190,150,190,190,DOWN,EQUAL,50,40,19,True,True,False,True,890,889,False,False,DOWN,DOWN
300,440,310,440,350,310,UP,RIGHT,180,170,23,True,False,True,True,1159,1158,False,False,RIGHT,RIGHT
190,320,190,330,210,440,DOWN,RIGHT,140,130,44,True,True,False,True,2409,2408,True,False,DOWN,DOWN
130,410,140,410,220,360,UP,RIGHT,140,130,40,True,False,True,True,2264,2263,True,False,RIGHT,RIGHT
340,200,340,190,170,100,UP,LEFT,270,260,6,True,True,True,False,186,185,True,False,UP,UP
390,320,390,330,360,430,DOWN,LEFT,140,130,56,True,True,False,True,3083,3082,False,False,DOWN,DOWN
310,60,310,70,310,120,DOWN,EQUAL,60,50,48,True,False,False,True,2609,2608,True,True,DOWN,DOWN
150,400,150,410,160,420,DOWN,RIGHT,30,20,43,True,True,False,True,2368,2367,False,False,DOWN,DOWN
180,90,180,100,190,190,DOWN,RIGHT,110,100,19,True,True,False,True,896,895,True,False,DOWN,DOWN
320,410,320,400,310,120,UP,LEFT,300,290,48,True,False,True,True,2649,2648,True,False,RIGHT,UP
70,60,70,50,100,10,UP,RIGHT,80,70,10,True,True,True,False,339,338,True,False,UP,UP
160,200,160,190,390,80,UP,RIGHT,350,340,55,True,True,True,False,3047,3046,False,False,UP,UP
190,120,180,120,120,70,UP,LEFT,120,110,31,False,True,True,True,1714,1713,False,False,LEFT,LEFT
280,210,270,210,40,400,DOWN,LEFT,430,420,39,False,True,True,True,2216,2215,False,False,LEFT,LEFT
200,210,190,210,40,210,EQUAL,LEFT,160,150,45,False,True,True,True,2460,2459,True,False,LEFT,LEFT
150,140,160,140,260,150,DOWN,RIGHT,120,110,15,True,False,True,True,638,637,False,False,RIGHT,RIGHT
380,210,380,200,380,200,UP,EQUAL,10,0,59,True,True,True,False,3182,3282,True,False,UP,UP
100,70,110,70,220,70,EQUAL,RIGHT,120,110,29,True,False,True,True,1544,1543,False,False,RIGHT,RIGHT
90,210,80,210,40,400,DOWN,LEFT,240,230,39,False,True,True,True,2197,2196,False,False,LEFT,LEFT
440,410,440,420,390,260,UP,LEFT,200,210,38,True,True,False,True,2175,2174,False,False,DOWN,DOWN
220,90,210,90,170,100,DOWN,LEFT,60,50,6,False,True,True,True,163,162,False,False,LEFT,LEFT
310,260,300,260,150,260,EQUAL,LEFT,160,150,21,False,True,True,True,1024,1023,False,False,LEFT,LEFT
180,300,190,300,210,440,DOWN,RIGHT,170,160,44,True,False,True,True,2412,2411,True,False,RIGHT,RIGHT
340,30,340,20,400,20,UP,RIGHT,70,60,8,True,False,True,True,247,246,False,False,RIGHT,UP
110,320,110,310,100,50,UP,LEFT,280,270,52,True,True,True,False,2861,2860,True,False,UP,UP
320,220,320,230,20,330,DOWN,LEFT,410,400,33,True,True,False,True,1825,1824,False,False,DOWN,DOWN
340,190,340,180,170,100,UP,LEFT,260,250,6,True,True,True,False,185,184,True,False,UP,UP
160,420,170,420,210,440,EQUAL,EQUAL,70,60,44,True,False,True,True,2466,2465,False,False,RIGHT,RIGHT
420,90,410,90,370,230,DOWN,LEFT,190,180,50,False,True,True,True,2737,2736,True,False,LEFT,LEFT
420,170,420,180,100,370,DOWN,LEFT,520,510,9,True,True,False,True,324,323,False,False,DOWN,DOWN
160,120,160,130,160,420,DOWN,EQUAL,300,290,43,True,True,False,True,2399,2398,True,False,DOWN,DOWN
150,360,140,360,100,50,UP,LEFT,360,350,52,False,True,True,True,2869,2868,False,False,LEFT,LEFT
70,80,70,70,100,10,UP,RIGHT,100,90,10,True,True,True,False,341,340,True,False,UP,UP
110,70,110,60,100,10,UP,LEFT,70,60,10,False,True,True,False,314,313,True,False,UP,UP
370,310,370,320,370,330,DOWN,EQUAL,20,10,51,True,True,False,True,2795,2794,False,False,DOWN,DOWN
370,300,370,310,370,330,DOWN,EQUAL,30,20,51,True,True,False,True,2796,2795,False,False,DOWN,DOWN
60,120,60,130,60,180,DOWN,EQUAL,60,50,14,True,True,False,True,564,563,True,False,DOWN,DOWN
350,0,360,0,420,20,DOWN,RIGHT,90,80,4,True,False,False,True,41,0,False,False,RIGHT,RIGHT
350,360,340,360,100,50,UP,LEFT,560,550,52,False,True,True,True,2889,2888,False,False,LEFT,LEFT
290,470,300,470,320,270,UP,RIGHT,230,220,26,True,False,True,False,1360,0,True,False,RIGHT,RIGHT
130,160,130,150,130,70,UP,EQUAL,90,80,13,True,True,True,False,492,491,False,False,UP,UP
310,280,300,280,180,280,EQUAL,LEFT,130,120,24,False,True,True,True,1235,1234,True,False,LEFT,LEFT
270,150,280,150,450,270,DOWN,RIGHT,300,290,16,True,False,True,True,726,725,False,False,RIGHT,RIGHT
170,450,180,450,270,380,UP,RIGHT,170,160,35,True,False,True,True,1919,1918,False,False,RIGHT,RIGHT
340,0,350,0,420,20,DOWN,RIGHT,100,90,4,True,False,False,True,42,0,False,False,RIGHT,RIGHT
240,410,250,410,310,120,UP,RIGHT,360,350,48,True,False,True,True,2657,2656,True,True,RIGHT,RIGHT
450,270,450,280,460,440,DOWN,RIGHT,180,170,58,True,True,False,True,3132,3131,True,False,DOWN,DOWN
390,120,390,130,360,430,DOWN,LEFT,340,330,56,True,True,False,True,3103,3102,False,False,DOWN,DOWN
350,300,340,300,280,210,UP,LEFT,160,150,17,False,True,True,True,784,783,False,False,LEFT,LEFT
160,120,160,130,170,100,UP,RIGHT,30,40,6,True,True,False,True,154,153,False,False,DOWN,DOWN
160,60,160,50,390,80,DOWN,RIGHT,250,260,55,True,True,True,False,3033,3032,False,False,UP,UP
280,310,290,310,430,320,DOWN,RIGHT,160,150,46,True,False,True,True,2509,2508,True,False,RIGHT,RIGHT
120,250,120,240,130,70,UP,RIGHT,190,180,13,True,True,True,False,502,501,False,False,UP,UP
430,310,430,300,40,240,UP,LEFT,460,450,57,True,True,True,False,3137,3136,True,False,UP,UP
220,10,210,10,190,190,DOWN,LEFT,210,200,19,False,True,True,True,908,907,False,False,LEFT,LEFT
220,70,230,70,270,120,EQUAL,EQUAL,100,90,30,True,False,True,True,1633,1632,False,False,RIGHT,RIGHT
410,10,400,10,190,190,DOWN,LEFT,400,390,19,False,True,True,True,927,926,False,False,LEFT,LEFT
390,360,390,370,360,430,DOWN,LEFT,100,90,56,True,True,False,True,3079,3078,False,False,DOWN,DOWN
370,340,370,350,100,50,UP,LEFT,560,570,52,True,True,False,True,2893,2892,False,False,DOWN,DOWN
190,30,190,20,400,20,UP,RIGHT,220,210,8,True,False,True,True,266,265,True,False,RIGHT,UP
430,450,420,450,280,450,EQUAL,LEFT,150,140,47,True,True,False,True,2581,2580,False,False,DOWN,LEFT
440,300,430,300,280,210,UP,LEFT,250,240,17,False,True,True,True,793,792,False,False,LEFT,LEFT
140,210,130,210,40,210,EQUAL,LEFT,100,90,45,False,True,True,True,2454,2453,True,False,LEFT,LEFT
420,200,420,210,100,370,DOWN,LEFT,490,480,9,True,True,False,True,321,320,False,False,DOWN,DOWN
380,130,380,120,440,80,UP,RIGHT,110,100,60,True,True,True,False,3275,3274,True,False,UP,UP
350,370,350,360,350,310,UP,EQUAL,60,50,23,True,True,True,False,1147,1146,True,False,UP,UP
420,300,410,300,280,210,UP,LEFT,230,220,17,False,True,True,True,791,790,False,False,LEFT,LEFT
220,30,210,30,160,420,DOWN,LEFT,450,440,43,False,True,True,True,2414,2413,False,False,LEFT,LEFT
440,180,440,190,450,270,DOWN,RIGHT,100,90,16,True,True,False,True,706,705,False,False,DOWN,DOWN
160,420,150,420,160,410,UP,EQUAL,10,20,54,False,True,True,True,2988,2987,True,False,LEFT,LEFT
460,80,460,70,460,20,UP,EQUAL,60,50,18,True,True,True,False,838,837,False,False,UP,UP
150,360,150,370,160,420,DOWN,RIGHT,70,60,43,True,True,False,True,2372,2371,False,False,DOWN,DOWN
50,250,50,240,400,20,EQUAL,EQUAL,580,570,8,True,True,True,False,302,301,True,False,UP,UP
120,300,120,290,130,70,UP,RIGHT,240,230,13,True,False,True,True,507,506,False,False,RIGHT,UP
120,320,120,330,110,440,DOWN,LEFT,130,120,22,True,True,False,True,1092,1091,False,False,DOWN,DOWN
150,120,140,120,120,70,UP,LEFT,80,70,31,False,True,True,True,1710,1709,False,False,LEFT,LEFT
40,360,40,370,40,400,DOWN,EQUAL,40,30,39,True,True,False,True,2177,2176,True,False,DOWN,DOWN
60,30,60,40,220,70,DOWN,RIGHT,200,190,29,True,False,True,True,1552,1551,True,False,RIGHT,DOWN
140,300,150,300,210,440,DOWN,RIGHT,210,200,44,True,False,True,True,2416,2415,True,False,RIGHT,RIGHT
40,280,40,290,30,440,DOWN,LEFT,170,160,12,True,True,False,True,446,445,False,False,DOWN,DOWN
390,260,390,250,40,400,EQUAL,EQUAL,490,500,39,True,True,True,False,2232,2231,False,False,UP,UP
70,30,70,20,100,10,UP,RIGHT,50,40,10,True,True,True,False,336,335,True,False,UP,UP
150,280,140,280,30,410,DOWN,LEFT,250,240,41,False,True,True,True,2336,2335,True,False,LEFT,LEFT
450,180,450,190,120,80,UP,LEFT,430,440,61,True,True,False,True,3354,3353,True,False,DOWN,DOWN
450,90,450,100,120,80,UP,LEFT,340,350,61,True,True,False,True,3363,3362,True,True,DOWN,DOWN
180,420,190,420,210,440,DOWN,RIGHT,50,40,44,True,False,True,True,2464,2463,False,False,RIGHT,RIGHT
380,10,370,10,190,190,DOWN,LEFT,370,360,19,False,True,True,True,924,923,False,False,LEFT,LEFT
220,50,230,50,390,80,DOWN,RIGHT,200,190,55,True,False,True,True,3026,3025,False,False,RIGHT,RIGHT
40,220,40,230,30,440,DOWN,LEFT,230,220,12,True,True,False,True,452,451,False,False,DOWN,DOWN
390,410,390,420,360,430,DOWN,LEFT,50,40,56,True,True,False,True,3074,3073,False,False,DOWN,DOWN
160,30,170,30,400,20,UP,RIGHT,250,240,8,True,False,True,True,269,268,True,False,RIGHT,RIGHT
320,150,330,150,460,20,UP,RIGHT,270,260,18,True,False,True,True,859,858,True,False,RIGHT,RIGHT
70,420,70,410,160,410,UP,RIGHT,100,90,54,False,True,True,True,2979,2978,True,False,LEFT,UP
260,370,250,370,100,370,EQUAL,LEFT,160,150,9,False,True,True,True,288,287,True,False,LEFT,LEFT
110,300,120,300,130,70,UP,RIGHT,250,240,13,True,False,True,True,508,507,False,False,RIGHT,RIGHT
290,120,290,110,290,50,UP,EQUAL,70,60,42,True,True,True,False,2329,2328,False,False,UP,UP
110,370,100,370,100,370,EQUAL,LEFT,10,0,9,False,True,True,True,273,373,True,False,LEFT,LEFT
170,70,180,70,220,70,EQUAL,RIGHT,50,40,29,True,False,True,True,1537,1536,False,False,RIGHT,RIGHT
370,370,360,370,100,370,EQUAL,LEFT,270,260,9,False,True,True,True,299,298,True,False,LEFT,LEFT
200,150,200,160,50,250,DOWN,LEFT,250,240,7,True,True,False,True,228,227,False,False,DOWN,DOWN
320,430,330,430,360,430,EQUAL,RIGHT,40,30,56,True,False,False,True,3059,3058,False,False,RIGHT,RIGHT
280,100,280,110,270,120,DOWN,LEFT,30,20,30,True,True,False,True,1624,1623,False,False,DOWN,DOWN
140,140,150,140,260,150,DOWN,RIGHT,130,120,15,True,True,True,False,639,638,True,False,UP,RIGHT
220,470,230,470,320,270,UP,RIGHT,300,290,26,True,False,True,False,1367,0,True,False,RIGHT,RIGHT
280,170,270,170,280,160,UP,EQUAL,10,20,32,False,True,True,True,1769,1768,False,False,LEFT,LEFT
150,310,160,310,430,320,DOWN,RIGHT,290,280,46,True,False,True,True,2522,2521,True,False,RIGHT,RIGHT
70,440,80,440,130,70,UP,RIGHT,430,420,13,True,False,True,True,526,525,False,False,RIGHT,RIGHT
40,340,40,350,40,400,DOWN,EQUAL,60,50,39,True,True,False,True,2179,2178,True,False,DOWN,DOWN
320,360,320,350,310,120,UP,LEFT,250,240,48,True,True,True,False,2644,2643,False,False,UP,UP
180,360,180,370,160,410,EQUAL,EQUAL,70,60,54,True,True,False,True,2996,2995,True,False,DOWN,DOWN
70,180,70,170,100,10,UP,RIGHT,200,190,10,True,True,True,False,351,350,True,False,UP,UP
230,40,220,40,120,50,DOWN,LEFT,120,110,27,False,True,True,True,1406,1405,True,False,LEFT,LEFT
420,80,420,90,100,370,DOWN,LEFT,610,600,9,True,True,False,True,333,332,False,False,DOWN,DOWN
30,370,30,360,290,50,UP,RIGHT,580,570,42,True,False,True,False,2380,2379,False,False,UP,UP
420,360,420,370,100,370,DOWN,LEFT,330,320,9,True,True,False,True,305,304,False,False,DOWN,DOWN
220,100,220,110,30,440,DOWN,LEFT,530,520,12,True,True,False,True,482,481,False,False,DOWN,DOWN
70,280,60,280,30,410,DOWN,LEFT,170,160,41,False,True,True,True,2328,2327,True,False,LEFT,LEFT
70,90,60,90,10,110,DOWN,LEFT,80,70,28,False,True,True,True,1486,1485,False,False,LEFT,LEFT
190,330,190,340,210,440,DOWN,RIGHT,130,120,44,True,True,False,True,2408,2407,True,False,DOWN,DOWN
280,360,270,360,100,50,UP,LEFT,490,480,52,False,True,True,True,2882,2881,False,False,LEFT,LEFT
320,190,320,180,310,120,UP,LEFT,80,70,48,True,True,True,False,2627,2626,False,False,UP,UP
460,210,460,200,460,190,UP,EQUAL,20,10,20,True,True,True,False,953,952,False,False,UP,UP
150,320,150,330,160,420,DOWN,RIGHT,110,100,43,True,True,False,True,2376,2375,False,False,DOWN,DOWN
130,0,120,0,130,10,DOWN,EQUAL,10,20,3,False,True,False,True,-20,0,False,False,LEFT,LEFT
220,380,220,370,220,360,UP,EQUAL,20,10,40,True,True,True,False,2252,2251,True,False,UP,UP
260,150,270,150,450,270,EQUAL,EQUAL,310,300,16,True,False,True,True,727,726,False,False,RIGHT,RIGHT
50,330,50,320,210,440,DOWN,RIGHT,270,280,44,True,True,True,False,2428,2427,True,False,UP,UP
230,10,220,10,190,190,DOWN,LEFT,220,210,19,False,True,True,True,909,908,False,False,LEFT,LEFT
20,350,20,360,30,410,DOWN,RIGHT,70,60,41,True,True,False,True,2316,2315,True,False,DOWN,DOWN
10,380,10,390,10,460,DOWN,EQUAL,80,70,25,True,True,False,True,1296,1295,True,False,DOWN,DOWN
430,410,430,400,40,240,UP,LEFT,560,550,57,True,True,True,False,3147,3146,True,False,UP,UP
460,150,460,140,460,20,UP,EQUAL,130,120,18,True,False,True,True,845,844,True,False,RIGHT,UP
30,210,30,220,430,320,DOWN,RIGHT,510,500,46,False,True,True,True,2544,2543,True,False,LEFT,DOWN
400,160,390,160,150,260,DOWN,LEFT,350,340,21,False,True,True,True,1043,1042,True,False,LEFT,LEFT
60,200,60,210,260,150,UP,RIGHT,250,260,15,True,True,False,True,657,656,True,False,DOWN,DOWN
170,280,160,280,10,460,DOWN,LEFT,340,330,25,False,True,True,True,1322,1321,True,False,LEFT,LEFT
180,120,170,120,120,70,UP,LEFT,110,100,31,False,True,True,True,1713,1712,False,False,LEFT,LEFT
290,90,290,80,290,50,UP,EQUAL,40,30,42,True,True,True,False,2326,2325,False,False,UP,UP
380,220,380,210,380,200,UP,EQUAL,20,10,59,True,True,True,False,3183,3182,True,False,UP,UP
340,330,350,330,440,370,DOWN,RIGHT,140,130,37,True,False,True,True,2092,2091,False,False,RIGHT,RIGHT
270,70,280,70,270,120,DOWN,EQUAL,50,60,30,True,False,True,True,1628,1627,False,False,RIGHT,RIGHT
250,440,260,440,350,310,UP,RIGHT,230,220,23,True,False,True,True,1164,1163,False,False,RIGHT,RIGHT
340,300,340,290,170,100,EQUAL,EQUAL,370,360,6,True,True,True,False,196,195,True,False,UP,UP
120,310,120,320,110,440,DOWN,LEFT,140,130,22,True,False,True,True,1093,1092,False,False,RIGHT,DOWN
290,300,290,290,290,50,UP,EQUAL,250,240,42,True,False,True,True,2347,2346,False,False,RIGHT,UP
100,340,100,330,130,70,UP,RIGHT,300,290,13,True,True,True,False,513,512,True,False,UP,UP
340,150,350,150,460,20,UP,RIGHT,250,240,18,True,False,True,True,857,856,True,False,RIGHT,RIGHT
310,90,310,100,310,120,DOWN,EQUAL,30,20,48,True,False,False,True,2606,2605,True,True,DOWN,DOWN
150,410,160,410,160,410,EQUAL,RIGHT,10,0,54,True,False,True,False,2968,3068,False,True,RIGHT,RIGHT
390,190,400,190,460,440,DOWN,RIGHT,320,310,58,True,False,True,True,3146,3145,True,False,RIGHT,RIGHT
200,220,200,230,50,250,DOWN,LEFT,180,170,7,True,True,False,True,221,220,False,False,DOWN,DOWN
410,450,400,450,280,450,EQUAL,LEFT,130,120,47,False,True,True,True,2579,2578,False,False,LEFT,LEFT
200,230,200,240,50,250,DOWN,LEFT,170,160,7,True,True,False,True,220,219,False,False,DOWN,DOWN
10,430,10,440,10,460,DOWN,EQUAL,30,20,25,True,True,False,True,1291,1290,True,False,DOWN,DOWN
290,110,290,100,290,50,UP,EQUAL,60,50,42,True,True,True,False,2328,2327,False,False,UP,UP
350,400,350,390,350,310,UP,EQUAL,90,80,23,True,True,True,False,1150,1149,True,False,UP,UP
340,260,330,260,150,260,EQUAL,LEFT,190,180,21,False,True,True,True,1027,1026,False,False,LEFT,LEFT
300,90,290,90,370,230,DOWN,RIGHT,210,220,50,False,True,True,True,2725,2724,True,False,LEFT,LEFT
100,120,90,120,30,440,DOWN,LEFT,390,380,12,False,True,True,True,468,467,False,False,LEFT,LEFT
70,420,80,420,30,410,UP,LEFT,50,60,41,True,False,True,True,2304,2303,True,False,RIGHT,RIGHT
10,290,10,280,80,410,DOWN,RIGHT,190,200,34,True,True,True,False,1880,1879,True,False,UP,UP
410,310,420,310,430,320,DOWN,RIGHT,30,20,46,True,False,True,True,2496,2495,True,False,RIGHT,RIGHT
110,450,100,450,210,440,UP,RIGHT,110,120,44,False,True,True,True,2446,2445,False,False,LEFT,LEFT
310,90,300,90,170,100,DOWN,LEFT,150,140,6,False,True,True,True,172,171,False,False,LEFT,LEFT
120,280,110,280,30,410,DOWN,LEFT,220,210,41,False,True,True,True,2333,2332,True,False,LEFT,LEFT
80,330,70,330,20,330,EQUAL,LEFT,60,50,33,False,True,True,True,1790,1789,False,False,LEFT,LEFT
220,360,210,360,100,50,UP,LEFT,430,420,52,False,True,True,True,2876,2875,False,False,LEFT,LEFT
390,90,380,90,370,230,DOWN,LEFT,160,150,50,False,True,True,True,2734,2733,True,False,LEFT,LEFT
220,170,210,170,280,160,UP,RIGHT,70,80,32,False,True,True,True,1763,1762,False,False,LEFT,LEFT
310,10,300,10,190,190,DOWN,LEFT,300,290,19,False,True,True,True,917,916,False,False,LEFT,LEFT
120,300,130,300,210,440,DOWN,RIGHT,230,220,44,True,False,True,True,2418,2417,True,False,RIGHT,RIGHT
80,290,80,300,110,440,DOWN,RIGHT,180,170,22,True,True,False,True,1099,1098,False,False,DOWN,DOWN
410,300,400,300,280,210,UP,LEFT,220,210,17,False,True,True,True,790,789,False,False,LEFT,LEFT
60,330,50,330,20,330,EQUAL,LEFT,40,30,33,False,True,True,True,1788,1787,False,False,LEFT,LEFT
180,30,180,40,190,190,DOWN,RIGHT,170,160,19,True,True,False,True,902,901,True,False,DOWN,DOWN
70,370,70,360,100,10,UP,RIGHT,390,380,10,False,True,True,True,370,369,True,False,LEFT,UP
160,230,160,220,390,80,UP,RIGHT,380,370,55,True,True,True,False,3050,3049,False,False,UP,UP
120,300,130,300,290,50,UP,RIGHT,420,410,42,True,False,True,True,2364,2363,False,False,RIGHT,RIGHT
270,410,270,400,270,380,UP,EQUAL,30,20,35,True,True,True,False,1905,1904,True,False,UP,UP
340,20,350,20,400,20,EQUAL,RIGHT,60,50,8,True,True,True,False,246,245,False,False,UP,RIGHT
270,400,270,390,270,380,UP,EQUAL,20,10,35,True,True,True,False,1904,1903,True,False,UP,UP
380,360,380,350,380,200,UP,EQUAL,160,150,59,True,True,True,False,3197,3196,True,True,UP,UP
170,150,170,140,170,100,UP,EQUAL,50,40,6,True,False,True,False,148,147,True,False,UP,UP
430,280,430,270,40,240,UP,LEFT,430,420,57,True,True,True,False,3134,3133,True,False,UP,UP
390,210,380,210,40,400,DOWN,LEFT,540,530,39,True,True,True,False,2227,2226,False,False,UP,LEFT
370,300,360,300,280,210,UP,LEFT,180,170,17,False,True,True,True,786,785,False,False,LEFT,LEFT
100,130,100,120,100,50,UP,EQUAL,80,70,52,True,True,True,False,2841,2840,False,False,UP,UP
260,120,250,120,120,70,UP,LEFT,190,180,31,False,True,True,True,1721,1720,False,False,LEFT,LEFT
230,420,230,410,310,120,UP,RIGHT,380,370,48,True,True,True,False,2659,2658,True,False,UP,UP
130,30,130,20,130,10,UP,EQUAL,20,10,3,True,True,True,False,-35,-36,True,False,UP,UP
270,270,270,260,40,210,UP,LEFT,290,280,45,True,True,True,False,2473,2472,False,False,UP,UP
240,160,250,160,280,160,EQUAL,RIGHT,40,30,32,True,False,True,False,1738,1737,False,False,RIGHT,RIGHT
290,140,290,130,290,50,UP,EQUAL,90,80,42,True,True,True,False,2331,2330,False,False,UP,UP
170,40,180,40,280,160,DOWN,RIGHT,230,220,32,True,False,True,True,1795,1794,True,False,RIGHT,RIGHT
70,300,70,290,100,10,UP,RIGHT,320,310,10,True,True,True,False,363,362,True,False,UP,UP
60,410,70,410,220,360,UP,RIGHT,210,200,40,True,False,True,True,2271,2270,True,False,RIGHT,RIGHT
100,370,100,360,130,70,UP,RIGHT,330,320,13,True,True,True,False,516,515,True,False,UP,UP
240,70,250,70,270,120,DOWN,RIGHT,80,70,30,True,False,True,True,1631,1630,False,False,RIGHT,RIGHT
110,220,120,220,260,150,UP,RIGHT,220,210,15,True,False,True,True,650,649,True,False,RIGHT,RIGHT
130,170,120,170,280,160,UP,RIGHT,160,170,32,False,True,True,True,1754,1753,False,False,LEFT,LEFT
450,10,440,10,190,190,DOWN,LEFT,440,430,19,False,True,True,True,931,930,False,False,LEFT,LEFT
320,170,320,160,310,120,UP,LEFT,60,50,48,True,True,True,False,2625,2624,False,False,UP,UP
50,360,50,350,210,440,DOWN,RIGHT,240,250,44,True,True,True,False,2431,2430,True,False,UP,UP
420,310,420,320,100,370,DOWN,LEFT,380,370,9,True,True,False,True,310,309,False,False,DOWN,DOWN
200,30,190,30,160,420,DOWN,LEFT,430,420,43,False,True,True,True,2412,2411,False,False,LEFT,LEFT
200,370,190,370,100,370,EQUAL,LEFT,100,90,9,False,True,True,True,282,281,True,False,LEFT,LEFT
300,150,310,150,450,270,DOWN,RIGHT,270,260,16,True,False,True,True,723,722,False,False,RIGHT,RIGHT
420,170,420,180,340,300,DOWN,LEFT,210,200,5,True,True,False,True,118,117,False,False,DOWN,DOWN
140,0,150,0,420,20,DOWN,RIGHT,300,290,4,True,False,False,True,62,0,False,False,RIGHT,RIGHT
400,90,390,90,370,230,DOWN,LEFT,170,160,50,False,True,True,True,2735,2734,True,False,LEFT,LEFT
120,340,120,350,110,440,DOWN,LEFT,110,100,22,True,True,False,True,1090,1089,False,False,DOWN,DOWN
90,280,80,280,30,410,DOWN,LEFT,190,180,41,False,True,True,True,2330,2329,True,False,LEFT,LEFT
40,330,40,340,40,400,DOWN,EQUAL,70,60,39,True,True,False,True,2180,2179,True,False,DOWN,DOWN
40,220,40,230,40,400,DOWN,EQUAL,180,170,39,True,True,False,True,2191,2190,True,False,DOWN,DOWN
390,370,390,380,360,430,DOWN,LEFT,90,80,56,True,True,False,True,3078,3077,False,False,DOWN,DOWN
390,300,380,300,280,210,UP,LEFT,200,190,17,False,True,True,True,788,787,False,False,LEFT,LEFT
290,420,290,410,390,260,UP,RIGHT,260,250,38,True,True,True,False,2157,2156,True,False,UP,UP
70,20,70,30,180,80,DOWN,RIGHT,170,160,11,True,True,False,True,404,403,False,False,DOWN,DOWN
140,120,130,120,30,440,DOWN,LEFT,430,420,12,False,True,True,True,472,471,False,False,LEFT,LEFT
110,90,110,80,100,10,UP,LEFT,90,80,10,False,True,True,False,316,315,True,False,UP,UP
290,10,280,10,190,190,DOWN,LEFT,280,270,19,False,True,True,True,915,914,False,False,LEFT,LEFT
110,190,100,190,100,50,UP,LEFT,150,140,52,True,True,True,False,2848,2847,True,False,UP,LEFT
130,150,140,150,280,160,DOWN,RIGHT,160,150,32,True,False,True,True,1750,1749,True,True,RIGHT,RIGHT
420,160,410,160,150,260,DOWN,LEFT,370,360,21,False,True,True,True,1045,1044,True,False,LEFT,LEFT
270,340,270,330,40,210,UP,LEFT,360,350,45,True,True,True,False,2480,2479,False,False,UP,UP
320,330,330,330,440,370,DOWN,RIGHT,160,150,37,True,False,True,True,2094,2093,False,False,RIGHT,RIGHT
320,350,320,340,320,270,UP,EQUAL,80,70,26,True,True,True,False,1345,1344,True,False,UP,UP
350,20,360,20,400,20,EQUAL,RIGHT,50,40,8,True,False,True,True,245,244,False,False,RIGHT,RIGHT
40,250,40,260,30,440,DOWN,LEFT,200,190,12,True,True,False,True,449,448,False,False,DOWN,DOWN
430,160,420,160,150,260,DOWN,LEFT,380,370,21,False,True,True,True,1046,1045,True,False,LEFT,LEFT
60,220,60,230,80,410,DOWN,RIGHT,210,200,34,True,False,True,True,1868,1867,True,True,RIGHT,DOWN
380,370,370,370,100,370,EQUAL,LEFT,280,270,9,False,True,True,True,300,299,True,False,LEFT,LEFT
450,350,450,360,460,440,DOWN,RIGHT,100,90,58,True,True,False,True,3124,3123,True,False,DOWN,DOWN
40,240,40,250,40,400,DOWN,EQUAL,160,150,39,True,True,False,True,2189,2188,True,False,DOWN,DOWN
270,390,270,380,270,380,UP,EQUAL,10,0,35,True,True,True,False,1903,2003,True,False,UP,UP
320,10,310,10,190,190,DOWN,LEFT,310,300,19,False,True,True,True,918,917,False,False,LEFT,LEFT
390,270,390,260,390,260,UP,EQUAL,10,0,38,True,True,True,False,2132,2232,False,False,UP,UP
450,100,450,110,120,80,UP,LEFT,350,360,61,True,True,False,True,3362,3361,True,True,DOWN,DOWN
470,220,480,220,120,80,UP,LEFT,490,500,61,False,False,True,True,3344,0,False,False,RIGHT,RIGHT
320,440,320,430,320,270,UP,EQUAL,170,160,26,True,True,True,False,1354,1353,True,False,UP,UP
430,410,430,420,280,450,DOWN,LEFT,190,180,47,True,True,False,True,2585,2584,False,False,DOWN,DOWN
290,30,300,30,400,20,UP,RIGHT,120,110,8,True,False,True,True,252,251,False,False,RIGHT,RIGHT
220,330,210,330,20,330,EQUAL,LEFT,200,190,33,False,True,True,True,1804,1803,False,False,LEFT,LEFT
200,230,190,230,40,240,DOWN,LEFT,170,160,57,False,True,True,True,3106,3105,True,False,LEFT,LEFT
350,320,350,310,350,310,UP,EQUAL,10,0,23,True,True,True,False,1142,1242,True,False,UP,UP
10,150,10,140,10,110,UP,EQUAL,40,30,28,False,True,True,False,1468,1467,False,False,UP,UP
450,450,440,450,380,200,UP,LEFT,320,310,59,False,True,True,True,3213,3212,False,False,LEFT,LEFT
180,370,170,370,100,370,EQUAL,LEFT,80,70,9,False,True,True,True,280,279,True,False,LEFT,LEFT
420,280,420,290,100,370,DOWN,LEFT,410,400,9,True,True,False,True,313,312,False,False,DOWN,DOWN
100,140,100,130,100,50,UP,EQUAL,90,80,52,True,True,True,False,2842,2841,False,False,UP,UP
190,210,180,210,40,400,DOWN,LEFT,340,330,39,False,True,True,True,2207,2206,False,False,LEFT,LEFT
380,110,380,100,440,80,UP,RIGHT,90,80,60,True,True,True,False,3273,3272,True,False,UP,UP
40,170,40,180,30,440,DOWN,LEFT,280,270,12,True,True,False,True,457,456,False,False,DOWN,DOWN
160,360,160,370,80,410,DOWN,LEFT,130,120,34,True,True,False,True,1844,1843,False,False,DOWN,DOWN
70,130,70,120,100,10,UP,RIGHT,150,140,10,True,True,True,False,346,345,True,False,UP,UP
100,280,90,280,10,460,DOWN,LEFT,270,260,25,False,True,True,True,1315,1314,True,False,LEFT,LEFT
340,300,330,300,280,210,UP,LEFT,150,140,17,False,True,True,True,783,782,False,False,LEFT,LEFT
170,80,170,70,50,250,DOWN,LEFT,290,300,7,True,True,True,False,242,241,True,False,UP,UP
450,340,450,350,460,440,DOWN,RIGHT,110,100,58,True,True,False,True,3125,3124,True,False,DOWN,DOWN
290,430,300,430,360,430,EQUAL,RIGHT,70,60,56,True,True,False,True,3062,3061,False,False,DOWN,RIGHT
90,330,80,330,20,330,EQUAL,LEFT,70,60,33,False,True,True,True,1791,1790,False,False,LEFT,LEFT
320,0,330,0,420,20,DOWN,RIGHT,120,110,4,True,False,False,True,44,0,False,False,RIGHT,RIGHT
100,170,100,160,100,50,UP,EQUAL,120,110,52,True,True,True,False,2845,2844,False,False,UP,UP
420,150,430,150,460,20,UP,RIGHT,170,160,18,True,False,True,True,849,848,True,False,RIGHT,RIGHT
420,30,420,40,100,370,DOWN,LEFT,660,650,9,True,True,False,True,338,337,False,False,DOWN,DOWN
220,230,210,230,40,240,DOWN,LEFT,190,180,57,False,True,True,True,3108,3107,True,False,LEFT,LEFT
430,150,440,150,460,20,UP,RIGHT,160,150,18,True,False,True,True,848,847,True,False,RIGHT,RIGHT
330,450,320,450,280,450,EQUAL,LEFT,50,40,47,False,True,True,True,2571,2570,False,False,LEFT,LEFT
30,320,30,310,290,50,UP,RIGHT,530,520,42,True,True,True,False,2375,2374,False,False,UP,UP
260,170,250,170,280,160,UP,RIGHT,30,40,32,False,True,True,True,1767,1766,False,False,LEFT,LEFT
10,460,10,470,320,270,EQUAL,EQUAL,500,510,26,True,True,False,True,1389,1388,True,False,DOWN,DOWN
160,410,170,410,220,360,UP,RIGHT,110,100,40,True,False,True,True,2261,2260,True,False,RIGHT,RIGHT
320,370,310,370,100,370,EQUAL,LEFT,220,210,9,False,True,True,True,294,293,True,False,LEFT,LEFT
190,310,200,310,430,320,DOWN,RIGHT,250,240,46,True,False,True,True,2518,2517,True,False,RIGHT,RIGHT
40,350,40,360,30,440,DOWN,LEFT,100,90,12,True,True,False,True,439,438,False,False,DOWN,DOWN
40,410,30,410,30,410,EQUAL,LEFT,10,0,41,False,True,True,False,2284,2384,True,True,LEFT,LEFT
60,260,60,270,80,410,DOWN,RIGHT,170,160,34,True,True,False,True,1864,1863,True,True,DOWN,DOWN
300,140,300,130,310,120,UP,RIGHT,30,20,48,True,True,True,False,2620,2619,False,False,UP,UP
110,310,120,310,430,320,DOWN,RIGHT,330,320,46,True,False,True,True,2526,2525,True,False,RIGHT,RIGHT
380,390,380,380,380,200,UP,EQUAL,190,180,59,True,True,True,False,3200,3199,True,True,UP,UP
240,440,250,440,350,310,UP,RIGHT,240,230,23,True,False,True,True,1165,1164,False,False,RIGHT,RIGHT
220,300,220,290,30,410,DOWN,LEFT,300,310,41,True,True,True,False,2345,2344,True,False,UP,UP
40,230,40,240,30,440,DOWN,LEFT,220,210,12,True,True,False,True,451,450,False,False,DOWN,DOWN
320,420,320,410,320,270,UP,EQUAL,150,140,26,True,True,True,False,1352,1351,True,False,UP,UP
330,0,340,0,420,20,DOWN,RIGHT,110,100,4,True,False,False,True,43,0,False,False,RIGHT,RIGHT
450,130,450,120,370,230,DOWN,LEFT,180,190,50,True,True,True,False,2744,2743,True,False,UP,UP
340,180,340,190,370,230,DOWN,RIGHT,80,70,50,True,True,False,True,2772,2771,False,False,DOWN,DOWN
450,320,450,330,460,440,DOWN,RIGHT,130,120,58,True,True,False,True,3127,3126,True,False,DOWN,DOWN
80,210,70,210,40,210,EQUAL,LEFT,40,30,45,False,True,True,True,2448,2447,True,False,LEFT,LEFT
390,220,390,230,360,430,DOWN,LEFT,240,230,56,True,True,False,True,3093,3092,False,False,DOWN,DOWN
220,290,220,280,30,410,DOWN,LEFT,310,320,41,True,True,True,False,2344,2343,True,False,UP,UP
270,360,260,360,100,50,UP,LEFT,480,470,52,False,True,True,True,2881,2880,False,False,LEFT,LEFT
170,210,160,210,40,210,EQUAL,LEFT,130,120,45,False,True,True,True,2457,2456,True,False,LEFT,LEFT
420,70,420,80,340,300,DOWN,LEFT,310,300,5,True,True,False,True,128,127,False,False,DOWN,DOWN
270,470,280,470,320,270,UP,RIGHT,250,240,26,True,False,True,False,1362,0,True,False,RIGHT,RIGHT
30,190,40,190,460,440,DOWN,RIGHT,680,670,58,True,False,True,True,3182,3181,True,False,RIGHT,RIGHT
230,150,230,160,280,160,DOWN,RIGHT,60,50,32,True,False,True,True,1740,1739,True,True,RIGHT,DOWN
320,120,320,110,120,50,UP,LEFT,270,260,27,True,True,True,False,1423,1422,True,False,UP,UP
390,280,390,270,390,260,UP,EQUAL,20,10,38,True,True,True,False,2133,2132,False,False,UP,UP
60,170,60,180,60,180,DOWN,EQUAL,10,0,14,True,True,False,True,559,659,True,False,DOWN,DOWN
390,330,390,320,390,260,UP,EQUAL,70,60,38,True,True,True,False,2138,2137,False,False,UP,UP
180,170,170,170,280,160,UP,RIGHT,110,120,32,False,True,True,True,1759,1758,False,False,LEFT,LEFT
230,360,220,360,100,50,UP,LEFT,440,430,52,False,True,True,True,2877,2876,False,False,LEFT,LEFT
100,310,110,310,430,320,DOWN,RIGHT,340,330,46,True,False,True,True,2527,2526,True,False,RIGHT,RIGHT
150,440,160,440,350,310,UP,RIGHT,330,320,23,True,False,True,True,1174,1173,False,False,RIGHT,RIGHT
110,290,110,280,100,50,UP,LEFT,250,240,52,True,True,True,False,2858,2857,True,False,UP,UP
160,370,160,380,80,410,DOWN,LEFT,120,110,34,True,True,False,True,1843,1842,False,False,DOWN,DOWN
190,190,190,200,460,190,EQUAL,EQUAL,270,280,20,True,True,False,True,986,985,False,False,DOWN,DOWN
90,80,100,80,180,80,EQUAL,RIGHT,90,80,11,True,False,True,True,396,395,True,False,RIGHT,RIGHT
320,230,320,240,20,330,DOWN,LEFT,400,390,33,True,True,False,True,1824,1823,False,False,DOWN,DOWN
120,80,120,90,100,10,UP,LEFT,90,100,10,True,True,False,True,320,319,True,False,DOWN,DOWN
140,150,150,150,280,160,DOWN,RIGHT,150,140,32,True,False,True,True,1749,1748,True,True,RIGHT,RIGHT
390,330,400,330,440,370,DOWN,RIGHT,90,80,37,True,False,True,True,2087,2086,False,False,RIGHT,RIGHT
60,130,60,140,60,180,DOWN,EQUAL,50,40,14,True,True,False,True,563,562,True,False,DOWN,DOWN
210,80,220,80,30,440,DOWN,LEFT,540,550,12,True,False,True,True,485,484,True,False,RIGHT,RIGHT
190,440,200,440,350,310,UP,RIGHT,290,280,23,True,False,True,True,1170,1169,False,False,RIGHT,RIGHT
350,260,340,260,150,260,EQUAL,LEFT,200,190,21,False,True,True,True,1028,1027,False,False,LEFT,LEFT
270,190,280,190,460,440,DOWN,RIGHT,440,430,58,True,False,True,True,3158,3157,True,False,RIGHT,RIGHT
20,280,20,290,30,410,DOWN,RIGHT,140,130,41,False,True,True,True,2323,2322,True,False,LEFT,DOWN
310,50,320,50,390,80,DOWN,RIGHT,110,100,55,True,False,True,True,3017,3016,False,False,RIGHT,RIGHT
270,300,270,290,40,210,UP,LEFT,320,310,45,True,True,True,False,2476,2475,False,False,UP,UP
390,280,390,290,360,430,DOWN,LEFT,180,170,56,True,True,False,True,3087,3086,False,False,DOWN,DOWN
50,410,50,400,210,440,DOWN,RIGHT,190,200,44,True,True,True,False,2436,2435,True,False,UP,UP
270,400,270,390,40,210,UP,LEFT,420,410,45,True,True,True,False,2486,2485,False,False,UP,UP
420,30,420,40,340,300,DOWN,LEFT,350,340,5,True,True,False,True,132,131,False,False,DOWN,DOWN
430,10,420,10,190,190,DOWN,LEFT,420,410,19,False,True,True,True,929,928,False,False,LEFT,LEFT
190,390,190,400,210,440,DOWN,RIGHT,70,60,44,True,True,False,True,2402,2401,True,False,DOWN,DOWN
280,260,270,260,150,260,EQUAL,LEFT,130,120,21,False,True,True,True,1021,1020,False,False,LEFT,LEFT
50,310,50,300,210,440,DOWN,RIGHT,290,300,44,True,True,True,False,2426,2425,True,False,UP,UP
20,230,20,220,460,440,DOWN,RIGHT,650,660,58,True,True,True,False,3187,3186,False,False,UP,UP
40,190,40,200,30,440,DOWN,LEFT,260,250,12,True,True,False,True,455,454,False,False,DOWN,DOWN
140,320,150,320,80,410,DOWN,LEFT,150,160,34,True,False,True,True,1850,1849,False,False,RIGHT,RIGHT
250,10,240,10,190,190,DOWN,LEFT,240,230,19,False,True,True,True,911,910,False,False,LEFT,LEFT
160,390,160,380,390,80,UP,RIGHT,540,530,55,True,True,True,False,3066,3065,False,False,UP,UP
340,230,340,220,170,100,UP,LEFT,300,290,6,True,True,True,False,189,188,True,False,UP,UP
190,0,180,0,130,10,DOWN,LEFT,70,60,3,True,True,False,False,-14,0,False,False,UP,LEFT
210,230,200,230,40,240,DOWN,LEFT,180,170,57,False,True,True,True,3107,3106,True,False,LEFT,LEFT
390,50,390,60,390,80,DOWN,EQUAL,30,20,55,True,False,True,True,3009,3008,False,False,RIGHT,DOWN
280,10,270,10,190,190,DOWN,LEFT,270,260,19,False,True,True,True,914,913,False,False,LEFT,LEFT
160,80,160,90,160,420,DOWN,EQUAL,340,330,43,True,True,False,True,2403,2402,True,False,DOWN,DOWN
100,330,90,330,20,330,EQUAL,LEFT,80,70,33,False,True,True,True,1792,1791,False,False,LEFT,LEFT
40,350,40,360,40,400,DOWN,EQUAL,50,40,39,True,True,False,True,2178,2177,True,False,DOWN,DOWN
270,380,270,370,300,330,EQUAL,EQUAL,80,70,36,True,True,True,False,2003,2002,True,False,UP,UP
200,40,210,40,280,160,DOWN,RIGHT,200,190,32,True,False,True,True,1792,1791,True,False,RIGHT,RIGHT
290,260,280,260,150,260,EQUAL,LEFT,140,130,21,False,True,True,True,1022,1021,False,False,LEFT,LEFT
450,140,450,150,120,80,UP,LEFT,390,400,61,True,True,False,True,3358,3357,True,True,DOWN,DOWN
310,190,320,190,460,440,DOWN,RIGHT,400,390,58,True,False,True,True,3154,3153,True,False,RIGHT,RIGHT
180,90,170,90,170,100,DOWN,LEFT,20,10,6,False,True,True,True,159,158,False,False,LEFT,LEFT
350,210,340,210,40,400,DOWN,LEFT,500,490,39,False,True,True,True,2223,2222,False,False,LEFT,LEFT
190,50,190,40,130,10,UP,LEFT,100,90,3,True,False,True,True,-9,-10,False,False,RIGHT,UP
130,450,140,450,270,380,UP,RIGHT,210,200,35,True,False,True,True,1923,1922,False,False,RIGHT,RIGHT
370,330,380,330,440,370,DOWN,RIGHT,110,100,37,True,False,True,True,2089,2088,False,False,RIGHT,RIGHT
290,450,280,450,280,450,EQUAL,LEFT,10,0,47,False,True,True,True,2567,2667,False,False,LEFT,LEFT
160,40,170,40,280,160,DOWN,RIGHT,240,230,32,True,False,True,True,1796,1795,True,False,RIGHT,RIGHT
120,110,120,100,120,70,UP,EQUAL,40,30,31,True,True,True,False,1706,1705,True,False,UP,UP
360,210,350,210,40,400,DOWN,LEFT,510,500,39,False,True,True,True,2224,2223,False,False,LEFT,LEFT
70,150,70,140,100,10,UP,RIGHT,170,160,10,True,True,True,False,348,347,True,False,UP,UP
170,420,180,420,210,440,DOWN,RIGHT,60,50,44,True,False,True,True,2465,2464,False,False,RIGHT,RIGHT
450,210,450,220,120,80,UP,LEFT,460,470,61,True,True,False,True,3351,3350,True,False,DOWN,DOWN
30,360,30,350,290,50,UP,RIGHT,570,560,42,True,False,True,False,2379,2378,False,False,UP,UP
110,280,100,280,30,410,DOWN,LEFT,210,200,41,False,True,True,True,2332,2331,True,False,LEFT,LEFT
270,290,270,280,40,210,UP,LEFT,310,300,45,True,True,True,False,2475,2474,False,False,UP,UP
160,100,160,110,170,100,EQUAL,RIGHT,10,20,6,True,True,False,True,156,155,False,False,DOWN,DOWN
240,370,230,370,100,370,EQUAL,LEFT,140,130,9,False,True,True,True,286,285,True,False,LEFT,LEFT
90,410,100,410,220,360,UP,RIGHT,180,170,40,True,False,True,True,2268,2267,True,False,RIGHT,RIGHT
50,330,40,330,20,330,EQUAL,LEFT,30,20,33,False,True,True,True,1787,1786,False,False,LEFT,LEFT
70,190,80,190,460,440,DOWN,RIGHT,640,630,58,True,False,True,True,3178,3177,True,False,RIGHT,RIGHT
330,420,320,420,360,430,DOWN,RIGHT,40,50,56,False,True,True,True,3067,3066,True,False,LEFT,LEFT
130,210,120,210,40,210,EQUAL,LEFT,90,80,45,False,True,True,True,2453,2452,True,False,LEFT,LEFT
290,160,290,170,280,160,EQUAL,LEFT,10,20,32,True,True,False,True,1771,1770,False,False,DOWN,DOWN
320,70,320,60,120,50,UP,LEFT,220,210,27,True,True,True,False,1418,1417,True,False,UP,UP
70,120,60,120,30,440,DOWN,LEFT,360,350,12,False,True,True,True,465,464,False,False,LEFT,LEFT
30,400,30,390,290,50,UP,RIGHT,610,600,42,True,False,True,False,2383,2382,False,False,UP,UP
120,40,130,40,280,160,DOWN,RIGHT,280,270,32,True,True,True,False,1800,1799,True,False,UP,RIGHT
20,210,20,200,460,440,DOWN,RIGHT,670,680,58,True,True,True,False,3185,3184,False,False,UP,UP
250,360,240,360,100,50,UP,LEFT,460,450,52,False,True,True,True,2879,2878,False,False,LEFT,LEFT
200,170,190,170,280,160,UP,RIGHT,90,100,32,False,True,True,True,1761,1760,False,False,LEFT,LEFT
100,410,90,410,30,410,EQUAL,LEFT,70,60,41,False,True,True,False,2290,2289,True,True,LEFT,LEFT
10,310,10,320,10,460,DOWN,EQUAL,150,140,25,True,True,False,True,1303,1302,True,False,DOWN,DOWN
170,280,160,280,30,410,DOWN,LEFT,270,260,41,False,True,True,True,2338,2337,True,False,LEFT,LEFT
160,380,160,370,390,80,UP,RIGHT,530,520,55,True,True,True,False,3065,3064,False,False,UP,UP
380,20,390,20,400,20,EQUAL,RIGHT,20,10,8,True,False,True,True,242,241,False,False,RIGHT,RIGHT
270,420,270,410,270,380,UP,EQUAL,40,30,35,True,True,True,False,1906,1905,True,False,UP,UP
10,50,10,40,220,70,DOWN,RIGHT,230,240,29,True,True,True,False,1559,1558,False,False,UP,UP
40,290,40,300,40,400,DOWN,EQUAL,110,100,39,True,True,False,True,2184,2183,True,False,DOWN,DOWN
70,40,70,30,100,10,UP,RIGHT,60,50,10,True,True,True,False,337,336,True,False,UP,UP
460,220,470,220,120,80,UP,LEFT,480,490,61,True,False,True,False,3345,0,False,False,UP,RIGHT
430,430,430,440,280,450,DOWN,LEFT,170,160,47,True,True,False,True,2583,2582,False,False,DOWN,DOWN
140,260,130,260,110,440,DOWN,LEFT,210,200,22,False,True,True,True,1108,1107,False,False,LEFT,LEFT
410,150,420,150,460,20,UP,RIGHT,180,170,18,True,False,True,True,850,849,True,False,RIGHT,RIGHT
340,100,350,100,370,230,DOWN,RIGHT,160,150,50,True,False,False,True,2718,2717,True,True,RIGHT,RIGHT
320,100,320,90,120,50,UP,LEFT,250,240,27,True,True,True,False,1421,1420,True,False,UP,UP
430,330,430,340,280,450,DOWN,LEFT,270,260,47,True,True,False,True,2593,2592,False,False,DOWN,DOWN
340,440,350,440,350,310,UP,RIGHT,140,130,23,True,False,True,True,1155,1154,False,False,RIGHT,RIGHT
50,420,60,420,30,410,UP,LEFT,30,40,41,True,False,True,True,2306,2305,True,False,RIGHT,RIGHT
100,80,100,70,100,50,UP,EQUAL,30,20,52,True,True,True,False,2836,2835,False,False,UP,UP
320,300,320,310,20,330,DOWN,LEFT,330,320,33,True,True,False,True,1817,1816,False,False,DOWN,DOWN
80,190,90,190,460,440,DOWN,RIGHT,630,620,58,True,False,True,True,3177,3176,True,False,RIGHT,RIGHT
320,340,320,330,310,120,UP,LEFT,230,220,48,True,True,True,False,2642,2641,False,False,UP,UP
60,50,60,60,220,70,DOWN,RIGHT,180,170,29,True,True,False,True,1550,1549,True,False,DOWN,DOWN
220,0,230,0,420,20,DOWN,RIGHT,220,210,4,True,False,False,True,54,0,False,False,RIGHT,RIGHT
10,270,10,260,80,410,DOWN,RIGHT,210,220,34,True,True,True,False,1878,1877,True,False,UP,UP
290,370,280,370,100,370,EQUAL,LEFT,190,180,9,False,True,True,True,291,290,True,False,LEFT,LEFT
330,30,340,30,400,20,UP,RIGHT,80,70,8,True,False,True,True,248,247,False,False,RIGHT,RIGHT
200,60,200,70,50,250,DOWN,LEFT,340,330,7,True,False,True,True,237,236,False,False,RIGHT,DOWN
230,230,220,230,40,240,DOWN,LEFT,200,190,57,False,True,True,True,3109,3108,True,False,LEFT,LEFT
100,280,90,280,30,410,DOWN,LEFT,200,190,41,False,True,True,True,2331,2330,True,False,LEFT,LEFT
160,180,160,170,390,80,UP,RIGHT,330,320,55,True,True,True,False,3045,3044,False,False,UP,UP
450,300,450,310,460,440,DOWN,RIGHT,150,140,58,True,True,False,True,3129,3128,True,False,DOWN,DOWN
320,320,320,310,320,270,UP,EQUAL,50,40,26,True,True,True,False,1342,1341,True,False,UP,UP
180,250,180,260,180,360,DOWN,EQUAL,110,100,53,True,True,False,True,2906,2905,True,False,DOWN,DOWN
200,140,210,140,260,150,DOWN,RIGHT,70,60,15,True,False,True,True,633,632,False,False,RIGHT,RIGHT
100,400,100,390,130,70,UP,RIGHT,360,350,13,True,True,True,False,519,518,True,False,UP,UP
220,260,210,260,150,260,EQUAL,LEFT,70,60,21,False,True,True,True,1015,1014,False,False,LEFT,LEFT
50,440,50,430,210,440,EQUAL,RIGHT,160,170,44,True,True,True,False,2439,2438,True,False,UP,UP
420,290,420,300,100,370,DOWN,LEFT,400,390,9,True,True,False,True,312,311,False,False,DOWN,DOWN
310,210,300,210,40,400,DOWN,LEFT,460,450,39,False,True,True,True,2219,2218,False,False,LEFT,LEFT
350,360,350,350,350,310,UP,EQUAL,50,40,23,True,True,True,False,1146,1145,True,False,UP,UP
30,30,40,30,220,70,DOWN,RIGHT,230,220,29,True,False,True,True,1555,1554,True,False,RIGHT,RIGHT
370,160,370,170,370,230,DOWN,EQUAL,70,60,50,True,True,False,True,2709,2708,False,False,DOWN,DOWN
310,150,320,150,460,20,UP,RIGHT,280,270,18,True,False,True,True,860,859,True,False,RIGHT,RIGHT
180,310,190,310,430,320,DOWN,RIGHT,260,250,46,True,False,True,True,2519,2518,True,False,RIGHT,RIGHT
120,20,120,30,130,10,UP,RIGHT,20,30,3,True,True,False,True,-23,-24,True,False,DOWN,DOWN
370,210,370,220,370,230,DOWN,EQUAL,20,10,50,True,True,False,True,2704,2703,False,False,DOWN,DOWN
260,360,250,360,100,50,UP,LEFT,470,460,52,False,True,True,True,2880,2879,False,False,LEFT,LEFT
410,370,400,370,100,370,EQUAL,LEFT,310,300,9,False,True,True,True,303,302,True,False,LEFT,LEFT
320,130,320,120,120,50,UP,LEFT,280,270,27,True,True,True,False,1424,1423,True,False,UP,UP
30,420,40,420,30,410,UP,EQUAL,10,20,41,True,False,True,True,2308,2307,True,False,RIGHT,RIGHT
200,160,200,170,50,250,DOWN,LEFT,240,230,7,True,True,False,True,227,226,False,False,DOWN,DOWN
130,420,140,420,30,410,UP,LEFT,110,120,41,True,False,True,True,2298,2297,True,False,RIGHT,RIGHT
450,200,450,190,370,230,DOWN,LEFT,110,120,50,True,True,True,False,2751,2750,True,False,UP,UP
450,200,450,210,120,80,UP,LEFT,450,460,61,True,True,False,True,3352,3351,True,False,DOWN,DOWN
20,360,20,370,30,410,DOWN,RIGHT,60,50,41,True,True,False,True,2315,2314,True,False,DOWN,DOWN
80,470,90,470,320,270,UP,RIGHT,440,430,26,True,False,True,False,1381,0,True,False,RIGHT,RIGHT
40,220,50,220,80,410,DOWN,RIGHT,230,220,34,True,False,True,True,1870,1869,True,False,RIGHT,RIGHT
400,230,410,230,460,190,UP,RIGHT,100,90,20,True,False,True,True,961,960,False,False,RIGHT,RIGHT
390,220,390,210,390,170,UP,EQUAL,50,40,49,False,True,True,True,2684,2683,False,True,LEFT,UP
50,30,60,30,220,70,DOWN,RIGHT,210,200,29,True,False,True,True,1553,1552,True,False,RIGHT,RIGHT
320,260,320,250,120,50,UP,LEFT,410,400,27,True,True,True,False,1437,1436,True,False,UP,UP
160,250,160,240,390,80,UP,RIGHT,400,390,55,True,True,True,False,3052,3051,False,False,UP,UP
220,120,210,120,120,70,UP,LEFT,150,140,31,False,True,True,True,1717,1716,False,False,LEFT,LEFT
420,40,420,50,100,370,DOWN,LEFT,650,640,9,True,True,False,True,337,336,False,False,DOWN,DOWN
280,280,280,270,280,210,UP,EQUAL,70,60,17,True,True,True,False,775,774,True,False,UP,UP
240,310,250,310,430,320,DOWN,RIGHT,200,190,46,True,False,True,True,2513,2512,True,False,RIGHT,RIGHT
350,350,360,350,390,260,UP,RIGHT,130,120,38,True,False,True,True,2144,2143,True,True,RIGHT,RIGHT
450,140,450,130,370,230,DOWN,LEFT,170,180,50,True,True,True,False,2745,2744,True,False,UP,UP
80,280,80,290,80,410,DOWN,EQUAL,130,120,34,True,True,False,True,1860,1859,False,True,DOWN,DOWN
120,220,130,220,130,70,UP,RIGHT,160,150,13,True,True,True,False,499,498,False,False,UP,RIGHT
310,430,300,430,390,260,UP,RIGHT,250,260,38,False,True,True,True,2160,2159,True,False,LEFT,LEFT
350,130,360,130,390,170,DOWN,RIGHT,80,70,49,True,False,True,True,2699,2698,False,False,RIGHT,RIGHT
190,40,200,40,280,160,DOWN,RIGHT,210,200,32,True,False,True,True,1793,1792,True,False,RIGHT,RIGHT
10,100,10,90,220,70,UP,RIGHT,240,230,29,False,True,True,False,1564,1563,False,False,UP,UP
300,150,300,140,310,120,UP,RIGHT,40,30,48,False,True,True,True,2621,2620,False,False,LEFT,UP
280,330,290,330,300,330,EQUAL,RIGHT,20,10,36,True,False,True,True,1997,1996,False,False,RIGHT,RIGHT
270,220,270,210,40,210,UP,LEFT,240,230,45,True,True,True,False,2468,2467,False,False,UP,UP
170,30,180,30,400,20,UP,RIGHT,240,230,8,True,False,True,True,268,267,True,False,RIGHT,RIGHT
320,180,320,170,310,120,UP,LEFT,70,60,48,True,True,True,False,2626,2625,False,False,UP,UP
340,450,330,450,280,450,EQUAL,LEFT,60,50,47,False,True,True,True,2572,2571,False,False,LEFT,LEFT
380,440,380,430,380,200,UP,EQUAL,240,230,59,True,True,True,False,3205,3204,True,True,UP,UP
100,70,100,60,100,50,UP,EQUAL,20,10,52,True,True,True,False,2835,2834,False,False,UP,UP
380,310,370,310,340,300,UP,LEFT,50,40,5,False,True,True,True,100,99,True,False,LEFT,LEFT
160,110,160,100,390,80,UP,RIGHT,260,250,55,True,True,True,False,3038,3037,False,False,UP,UP
120,80,120,70,120,70,UP,EQUAL,10,0,31,True,True,True,False,1703,1803,True,False,UP,UP
180,260,170,260,150,260,EQUAL,LEFT,30,20,21,False,True,True,True,1011,1010,False,False,LEFT,LEFT
10,140,10,130,10,110,UP,EQUAL,30,20,28,False,True,True,False,1467,1466,False,False,UP,UP
460,190,460,180,150,260,EQUAL,EQUAL,380,390,21,True,True,True,False,1052,1051,False,False,UP,UP
340,220,340,210,170,100,UP,LEFT,290,280,6,True,True,True,False,188,187,True,False,UP,UP
350,230,340,230,40,240,DOWN,LEFT,320,310,57,False,True,True,True,3121,3120,True,False,LEFT,LEFT
250,280,240,280,180,280,EQUAL,LEFT,70,60,24,False,True,True,True,1229,1228,True,False,LEFT,LEFT
110,200,110,190,100,50,UP,LEFT,160,150,52,True,True,True,False,2849,2848,True,False,UP,UP
450,250,450,260,460,440,DOWN,RIGHT,200,190,58,True,True,False,True,3134,3133,True,False,DOWN,DOWN
300,130,300,120,310,120,UP,RIGHT,20,10,48,True,True,True,False,2619,2618,False,False,UP,UP
380,430,370,430,390,260,UP,RIGHT,180,190,38,False,True,True,True,2167,2166,True,False,LEFT,LEFT
340,110,340,100,170,100,UP,LEFT,180,170,6,True,True,True,False,177,176,True,False,UP,UP
260,190,270,190,460,440,DOWN,RIGHT,450,440,58,True,False,True,True,3159,3158,True,False,RIGHT,RIGHT
60,210,60,220,260,150,UP,RIGHT,260,270,15,True,True,False,True,656,655,True,False,DOWN,DOWN
70,80,80,80,180,80,EQUAL,RIGHT,110,100,11,True,True,False,True,398,397,False,False,DOWN,RIGHT
20,140,20,150,10,110,UP,LEFT,40,50,28,True,True,False,True,1476,1475,False,False,DOWN,DOWN
160,300,160,290,390,80,UP,RIGHT,450,440,55,True,True,True,False,3057,3056,False,False,UP,UP
120,450,110,450,210,440,UP,RIGHT,100,110,44,False,True,True,True,2447,2446,False,False,LEFT,LEFT
190,60,200,60,50,250,DOWN,LEFT,330,340,7,True,False,True,True,238,237,False,False,RIGHT,RIGHT
460,70,460,60,460,20,UP,EQUAL,50,40,18,True,True,True,False,837,836,False,False,UP,UP
10,250,10,240,80,410,DOWN,RIGHT,230,240,34,True,True,True,False,1876,1875,True,False,UP,UP
110,270,110,260,100,50,UP,LEFT,230,220,52,True,True,True,False,2856,2855,True,False,UP,UP
100,190,100,180,100,50,UP,EQUAL,140,130,52,False,True,True,True,2847,2846,False,False,LEFT,UP
150,0,160,0,420,20,DOWN,RIGHT,290,280,4,True,False,False,True,61,0,False,False,RIGHT,RIGHT
190,10,180,10,190,190,DOWN,EQUAL,180,190,19,False,True,True,True,905,904,False,False,LEFT,LEFT
60,40,60,50,220,70,DOWN,RIGHT,190,180,29,True,True,False,True,1551,1550,True,False,DOWN,DOWN
300,370,290,370,100,370,EQUAL,LEFT,200,190,9,False,True,True,True,292,291,True,False,LEFT,LEFT
160,130,150,130,160,420,DOWN,EQUAL,290,300,43,True,True,False,True,2398,2397,True,False,DOWN,LEFT
370,190,370,200,370,230,DOWN,EQUAL,40,30,50,True,True,False,True,2706,2705,False,False,DOWN,DOWN
120,70,120,60,280,160,EQUAL,EQUAL,250,260,32,True,True,True,False,1803,1802,True,False,UP,UP
90,450,100,450,270,380,UP,RIGHT,250,240,35,True,False,True,True,1927,1926,False,False,RIGHT,RIGHT
100,360,100,350,130,70,UP,RIGHT,320,310,13,True,True,True,False,515,514,True,False,UP,UP
380,260,370,260,150,260,EQUAL,LEFT,230,220,21,True,True,False,True,1031,1030,True,False,DOWN,LEFT
340,370,330,370,100,370,EQUAL,LEFT,240,230,9,False,True,True,True,296,295,True,False,LEFT,LEFT
110,340,110,330,100,50,UP,LEFT,300,290,52,True,True,True,False,2863,2862,True,False,UP,UP
90,60,90,70,10,110,DOWN,LEFT,130,120,28,True,True,False,True,1491,1490,False,False,DOWN,DOWN
160,140,160,130,390,80,UP,RIGHT,290,280,55,True,True,True,False,3041,3040,False,False,UP,UP
300,150,310,150,460,20,UP,RIGHT,290,280,18,True,False,True,True,861,860,True,False,RIGHT,RIGHT
110,50,120,50,130,10,UP,RIGHT,60,50,3,True,False,True,True,-1,-2,False,False,RIGHT,RIGHT
210,470,220,470,320,270,UP,RIGHT,310,300,26,True,False,True,False,1368,0,True,False,RIGHT,RIGHT
50,320,50,310,210,440,DOWN,RIGHT,280,290,44,True,True,True,False,2427,2426,True,False,UP,UP
230,310,240,310,430,320,DOWN,RIGHT,210,200,46,True,False,True,True,2514,2513,True,False,RIGHT,RIGHT
190,40,190,30,130,10,UP,LEFT,90,80,3,True,True,True,False,-10,-11,False,False,UP,UP
220,280,210,280,30,410,DOWN,LEFT,320,310,41,True,True,True,False,2343,2342,True,False,UP,LEFT
280,470,290,470,320,270,UP,RIGHT,240,230,26,True,False,True,False,1361,0,True,False,RIGHT,RIGHT
420,220,420,230,340,300,DOWN,LEFT,160,150,5,True,True,False,True,113,112,False,False,DOWN,DOWN
130,310,140,310,430,320,DOWN,RIGHT,310,300,46,True,False,True,True,2524,2523,True,False,RIGHT,RIGHT
120,350,120,360,110,440,DOWN,LEFT,100,90,22,True,True,False,True,1089,1088,False,False,DOWN,DOWN
70,310,80,310,430,320,DOWN,RIGHT,370,360,46,True,False,True,True,2530,2529,True,False,RIGHT,RIGHT
250,260,240,260,150,260,EQUAL,LEFT,100,90,21,False,True,True,True,1018,1017,False,False,LEFT,LEFT
330,350,340,350,390,260,UP,RIGHT,150,140,38,True,False,True,True,2146,2145,True,True,RIGHT,RIGHT
320,200,320,210,20,330,DOWN,LEFT,430,420,33,True,True,False,True,1827,1826,False,False,DOWN,DOWN
200,70,210,70,220,70,EQUAL,RIGHT,20,10,29,True,False,True,True,1534,1533,False,False,RIGHT,RIGHT
120,160,120,150,280,160,EQUAL,RIGHT,160,170,32,True,True,True,False,1752,1751,True,False,UP,UP
280,210,280,200,460,20,EQUAL,EQUAL,370,360,18,True,True,True,False,869,868,True,False,UP,UP
210,140,220,140,260,150,DOWN,RIGHT,60,50,15,True,False,True,True,632,631,False,False,RIGHT,RIGHT
210,360,200,360,100,50,UP,LEFT,420,410,52,False,True,True,True,2875,2874,False,False,LEFT,LEFT
270,260,260,260,150,260,EQUAL,LEFT,120,110,21,False,True,True,True,1020,1019,False,False,LEFT,LEFT
60,270,70,270,80,410,DOWN,RIGHT,160,150,34,True,True,False,True,1863,1862,True,False,DOWN,RIGHT
140,200,140,210,160,420,DOWN,RIGHT,240,230,43,True,True,False,True,2389,2388,False,False,DOWN,DOWN
390,150,400,150,460,20,UP,RIGHT,200,190,18,True,False,True,True,852,851,True,False,RIGHT,RIGHT
80,300,90,300,210,440,DOWN,RIGHT,270,260,44,True,False,True,True,2422,2421,True,False,RIGHT,RIGHT
460,50,460,40,460,20,UP,EQUAL,30,20,18,True,True,True,False,835,834,False,False,UP,UP
120,50,130,50,130,10,UP,RIGHT,50,40,3,True,False,True,True,-2,-3,False,False,RIGHT,RIGHT
250,230,240,230,40,240,DOWN,LEFT,220,210,57,False,True,True,True,3111,3110,True,False,LEFT,LEFT
150,190,160,190,460,440,DOWN,RIGHT,560,550,58,True,False,True,True,3170,3169,True,False,RIGHT,RIGHT
270,90,270,100,280,160,DOWN,RIGHT,80,70,32,True,True,False,True,1780,1779,True,False,DOWN,DOWN
440,90,430,90,370,230,DOWN,LEFT,210,200,50,False,True,True,True,2739,2738,True,False,LEFT,LEFT
30,330,20,330,20,330,EQUAL,LEFT,10,0,33,False,True,True,True,1785,1885,False,False,LEFT,LEFT
390,80,400,80,440,80,EQUAL,RIGHT,50,40,60,True,False,True,True,3269,3268,True,False,RIGHT,RIGHT
170,360,160,360,100,50,UP,LEFT,380,370,52,False,True,True,True,2871,2870,False,False,LEFT,LEFT
70,410,60,410,30,410,EQUAL,LEFT,40,30,41,False,True,True,False,2287,2286,True,True,LEFT,LEFT
160,70,170,70,220,70,EQUAL,RIGHT,60,50,29,True,False,True,True,1538,1537,False,False,RIGHT,RIGHT
340,230,330,230,40,240,DOWN,LEFT,310,300,57,False,True,True,True,3120,3119,True,False,LEFT,LEFT
430,350,430,340,40,240,UP,LEFT,500,490,57,True,True,True,False,3141,3140,True,False,UP,UP
210,170,200,170,280,160,UP,RIGHT,80,90,32,False,True,True,True,1762,1761,False,False,LEFT,LEFT
380,310,380,300,380,200,UP,EQUAL,110,100,59,True,True,True,False,3192,3191,True,True,UP,UP
270,30,280,30,400,20,UP,RIGHT,140,130,8,True,True,False,True,254,253,False,False,DOWN,RIGHT
280,200,280,190,460,20,UP,RIGHT,360,350,18,True,True,True,False,868,867,True,False,UP,UP
370,170,370,180,370,230,DOWN,EQUAL,60,50,50,True,True,False,True,2708,2707,False,False,DOWN,DOWN
340,420,330,420,360,430,DOWN,RIGHT,30,40,56,False,True,True,True,3068,3067,True,False,LEFT,LEFT
330,260,320,260,150,260,EQUAL,LEFT,180,170,21,False,True,True,True,1026,1025,False,False,LEFT,LEFT
230,450,240,450,270,380,UP,RIGHT,110,100,35,True,False,True,True,1913,1912,False,False,RIGHT,RIGHT
110,310,110,300,100,50,UP,LEFT,270,260,52,True,True,True,False,2860,2859,True,False,UP,UP
170,120,160,120,120,70,UP,LEFT,100,90,31,False,True,True,True,1712,1711,False,False,LEFT,LEFT
120,40,120,50,130,10,UP,RIGHT,40,50,3,True,True,False,True,-25,-26,True,False,DOWN,DOWN
450,150,460,150,460,20,UP,RIGHT,140,130,18,True,False,True,True,846,845,True,False,RIGHT,RIGHT
70,330,70,320,100,10,UP,RIGHT,350,340,10,True,True,True,False,366,365,True,False,UP,UP
290,380,290,370,390,260,UP,RIGHT,220,210,38,True,True,True,False,2153,2152,True,False,UP,UP
50,340,50,330,210,440,DOWN,RIGHT,260,270,44,True,True,True,False,2429,2428,True,False,UP,UP
230,120,220,120,120,70,UP,LEFT,160,150,31,False,True,True,True,1718,1717,False,False,LEFT,LEFT
400,190,410,190,460,440,DOWN,RIGHT,310,300,58,True,False,True,True,3145,3144,True,False,RIGHT,RIGHT
450,240,450,250,450,270,DOWN,EQUAL,30,20,16,True,True,False,True,699,698,False,False,DOWN,DOWN
360,100,370,100,370,230,DOWN,RIGHT,140,130,50,True,False,False,True,2716,2715,True,True,RIGHT,RIGHT
290,150,300,150,450,270,DOWN,RIGHT,280,270,16,True,False,True,True,724,723,False,False,RIGHT,RIGHT
50,210,50,200,400,20,UP,RIGHT,540,530,8,True,True,True,False,298,297,True,False,UP,UP
40,300,40,310,40,400,DOWN,EQUAL,100,90,39,True,True,False,True,2183,2182,True,False,DOWN,DOWN
290,150,290,140,290,50,UP,EQUAL,100,90,42,True,True,True,False,2332,2331,False,False,UP,UP
220,360,220,350,30,410,EQUAL,EQUAL,240,250,41,True,True,True,False,2351,2350,True,False,UP,UP
70,300,80,300,290,50,UP,RIGHT,470,460,42,True,False,True,True,2369,2368,False,False,RIGHT,RIGHT
170,50,160,50,120,50,EQUAL,LEFT,50,40,27,True,True,False,True,1399,1398,True,False,DOWN,LEFT
390,230,400,230,460,190,UP,RIGHT,110,100,20,True,False,True,True,962,961,False,False,RIGHT,RIGHT
70,340,70,330,100,10,UP,RIGHT,360,350,10,True,True,True,False,367,366,True,False,UP,UP
70,40,70,50,180,80,DOWN,RIGHT,150,140,11,True,True,False,True,402,401,False,False,DOWN,DOWN
320,330,320,320,320,270,UP,EQUAL,60,50,26,True,True,True,False,1343,1342,True,False,UP,UP
100,50,90,50,10,110,DOWN,LEFT,150,140,28,False,True,True,True,1493,1492,False,False,LEFT,LEFT
160,160,170,160,170,100,UP,RIGHT,70,60,6,True,True,False,True,150,149,False,False,DOWN,RIGHT
180,100,180,110,190,190,DOWN,RIGHT,100,90,19,True,True,False,True,895,894,True,False,DOWN,DOWN
250,10,260,10,400,20,DOWN,RIGHT,160,150,8,True,False,True,True,258,257,False,False,RIGHT,RIGHT
320,230,320,220,120,50,UP,LEFT,380,370,27,True,True,True,False,1434,1433,True,False,UP,UP
170,260,160,260,150,260,EQUAL,LEFT,20,10,21,False,True,True,True,1010,1009,False,False,LEFT,LEFT
150,330,150,340,160,420,DOWN,RIGHT,100,90,43,True,True,False,True,2375,2374,False,False,DOWN,DOWN
420,430,430,430,40,240,UP,LEFT,570,580,57,True,False,True,True,3150,3149,False,False,RIGHT,RIGHT
340,280,330,280,180,280,EQUAL,LEFT,160,150,24,False,True,True,True,1238,1237,True,False,LEFT,LEFT
380,160,380,170,150,260,DOWN,LEFT,330,320,21,False,True,True,True,1041,1040,True,False,LEFT,DOWN
290,130,290,140,280,160,DOWN,LEFT,40,30,32,True,True,False,True,1774,1773,False,False,DOWN,DOWN
450,150,450,160,120,80,UP,LEFT,400,410,61,True,True,False,True,3357,3356,True,True,DOWN,DOWN
330,230,320,230,40,240,DOWN,LEFT,300,290,57,False,True,True,True,3119,3118,True,False,LEFT,LEFT
380,370,380,360,380,200,UP,EQUAL,170,160,59,True,True,True,False,3198,3197,True,True,UP,UP
120,40,120,50,100,10,UP,LEFT,50,60,10,True,True,False,True,324,323,True,False,DOWN,DOWN
240,40,250,40,280,160,DOWN,RIGHT,160,150,32,True,False,True,True,1788,1787,True,False,RIGHT,RIGHT
40,270,40,280,40,400,DOWN,EQUAL,130,120,39,True,True,False,True,2186,2185,True,False,DOWN,DOWN
390,250,390,260,360,430,DOWN,LEFT,210,200,56,True,True,False,True,3090,3089,False,False,DOWN,DOWN
320,450,310,450,280,450,EQUAL,LEFT,40,30,47,False,True,True,True,2570,2569,False,False,LEFT,LEFT
180,420,170,420,160,410,UP,LEFT,30,20,54,True,True,False,True,2990,2989,True,False,DOWN,LEFT
50,150,50,140,400,20,UP,RIGHT,480,470,8,True,True,True,False,292,291,True,False,UP,UP
450,230,460,230,460,190,UP,RIGHT,50,40,20,True,False,True,True,956,955,False,False,RIGHT,RIGHT
240,330,230,330,20,330,EQUAL,LEFT,220,210,33,False,True,True,True,1806,1805,False,False,LEFT,LEFT
110,440,120,440,350,310,EQUAL,EQUAL,370,360,23,True,False,True,True,1178,1177,False,False,RIGHT,RIGHT
220,230,230,230,460,190,UP,RIGHT,280,270,20,True,False,True,True,979,978,False,False,RIGHT,RIGHT
20,150,20,160,10,110,UP,LEFT,50,60,28,True,True,False,True,1475,1474,False,False,DOWN,DOWN
190,450,180,450,210,440,UP,RIGHT,30,40,44,False,True,True,True,2454,2453,False,False,LEFT,LEFT
250,210,240,210,40,210,EQUAL,LEFT,210,200,45,False,True,True,True,2465,2464,True,False,LEFT,LEFT
320,50,320,40,120,50,EQUAL,LEFT,200,210,27,True,True,True,False,1416,1415,True,False,UP,UP
80,260,70,260,50,250,UP,LEFT,40,30,7,False,True,True,True,205,204,True,False,LEFT,LEFT
290,210,290,200,290,50,UP,EQUAL,160,150,42,True,True,True,False,2338,2337,False,False,UP,UP
270,80,270,90,280,160,DOWN,RIGHT,90,80,32,True,True,False,True,1781,1780,True,False,DOWN,DOWN
120,390,110,390,80,410,DOWN,LEFT,60,50,34,False,True,True,True,1837,1836,False,False,LEFT,LEFT
360,130,370,130,390,170,DOWN,RIGHT,70,60,49,True,False,True,True,2698,2697,False,False,RIGHT,RIGHT
180,60,180,70,190,190,DOWN,RIGHT,140,130,19,True,True,False,True,899,898,True,False,DOWN,DOWN
290,330,300,330,300,330,EQUAL,RIGHT,10,0,36,True,False,True,True,1996,2096,False,False,RIGHT,RIGHT
450,260,450,270,460,440,DOWN,RIGHT,190,180,58,True,True,False,True,3133,3132,True,False,DOWN,DOWN
130,400,140,400,160,410,DOWN,RIGHT,40,30,54,True,False,True,True,2971,2970,True,True,RIGHT,RIGHT
320,350,320,340,310,120,UP,LEFT,240,230,48,True,True,True,False,2643,2642,False,False,UP,UP
100,300,110,300,210,440,DOWN,RIGHT,250,240,44,True,False,True,True,2420,2419,True,False,RIGHT,RIGHT
420,100,420,110,100,370,DOWN,LEFT,590,580,9,True,True,False,True,331,330,False,False,DOWN,DOWN
420,240,420,250,340,300,DOWN,LEFT,140,130,5,True,True,False,True,111,110,False,False,DOWN,DOWN
60,420,70,420,30,410,UP,LEFT,40,50,41,True,False,True,True,2305,2304,True,False,RIGHT,RIGHT
130,330,120,330,20,330,EQUAL,LEFT,110,100,33,False,True,True,True,1795,1794,False,False,LEFT,LEFT
340,190,350,190,460,440,DOWN,RIGHT,370,360,58,True,False,True,True,3151,3150,True,False,RIGHT,RIGHT
30,340,30,330,290,50,UP,RIGHT,550,540,42,True,False,True,False,2377,2376,False,False,UP,UP
200,200,200,210,50,250,DOWN,LEFT,200,190,7,True,True,False,True,223,222,False,False,DOWN,DOWN
30,420,30,430,30,440,DOWN,EQUAL,20,10,12,True,True,False,True,431,430,False,False,DOWN,DOWN
200,170,200,180,50,250,DOWN,LEFT,230,220,7,True,True,False,True,226,225,False,False,DOWN,DOWN
300,120,300,110,310,120,EQUAL,RIGHT,10,20,48,True,True,True,False,2618,2617,False,False,UP,UP
30,470,40,470,320,270,UP,RIGHT,490,480,26,True,False,True,False,1386,0,True,False,RIGHT,RIGHT
200,240,200,250,50,250,DOWN,LEFT,160,150,7,True,True,False,True,219,218,False,False,DOWN,DOWN
140,80,150,80,180,80,EQUAL,RIGHT,40,30,11,True,False,True,True,391,390,True,False,RIGHT,RIGHT
330,130,340,130,390,170,DOWN,RIGHT,100,90,49,True,False,True,True,2701,2700,False,False,RIGHT,RIGHT
380,160,370,160,370,230,DOWN,LEFT,80,70,50,False,True,True,True,2778,2777,False,True,LEFT,LEFT
420,10,420,20,420,20,DOWN,EQUAL,10,0,4,True,True,False,True,33,133,False,False,DOWN,DOWN
130,440,140,440,350,310,UP,RIGHT,350,340,23,True,False,True,True,1176,1175,False,False,RIGHT,RIGHT
100,300,110,300,130,70,UP,RIGHT,260,250,13,True,True,True,False,509,508,True,False,UP,RIGHT
450,180,450,170,370,230,DOWN,LEFT,130,140,50,True,True,True,False,2749,2748,True,False,UP,UP
320,400,320,390,310,120,UP,LEFT,290,280,48,True,True,True,False,2648,2647,False,False,UP,UP
20,120,20,130,10,110,UP,LEFT,20,30,28,True,True,False,True,1478,1477,False,False,DOWN,DOWN
200,280,190,280,30,410,DOWN,LEFT,300,290,41,False,True,True,True,2341,2340,True,False,LEFT,LEFT
320,430,320,420,320,270,UP,EQUAL,160,150,26,True,True,True,False,1353,1352,True,False,UP,UP
190,440,200,440,210,440,EQUAL,RIGHT,20,10,44,True,True,False,True,2397,2396,True,False,DOWN,RIGHT
350,330,360,330,440,370,DOWN,RIGHT,130,120,37,True,False,True,True,2091,2090,False,False,RIGHT,RIGHT
90,300,100,300,210,440,DOWN,RIGHT,260,250,44,True,False,True,True,2421,2420,True,False,RIGHT,RIGHT
430,250,430,240,40,240,UP,LEFT,400,390,57,True,True,True,False,3131,3130,True,False,UP,UP
260,70,270,70,270,120,DOWN,RIGHT,60,50,30,True,False,True,True,1629,1628,False,False,RIGHT,RIGHT
110,400,120,400,160,410,DOWN,RIGHT,60,50,54,True,False,True,True,2973,2972,True,True,RIGHT,RIGHT
460,200,460,190,460,190,UP,EQUAL,10,0,20,True,True,True,False,952,1052,False,False,UP,UP
170,30,160,30,160,420,DOWN,LEFT,400,390,43,False,True,True,True,2409,2408,False,False,LEFT,LEFT
110,470,120,470,320,270,UP,RIGHT,410,400,26,True,False,True,False,1378,0,True,False,RIGHT,RIGHT
20,190,30,190,460,440,DOWN,RIGHT,690,680,58,True,True,True,False,3183,3182,False,False,UP,RIGHT
300,100,310,100,370,230,DOWN,RIGHT,200,190,50,True,False,False,True,2722,2721,True,True,RIGHT,RIGHT
80,300,80,310,80,410,DOWN,EQUAL,110,100,34,True,True,False,True,1858,1857,False,True,DOWN,DOWN
180,40,180,50,190,190,DOWN,RIGHT,160,150,19,True,True,False,True,901,900,True,False,DOWN,DOWN
100,450,110,450,270,380,UP,RIGHT,240,230,35,True,False,True,True,1926,1925,False,False,RIGHT,RIGHT
270,90,260,90,170,100,DOWN,LEFT,110,100,6,False,True,True,True,168,167,False,False,LEFT,LEFT
270,50,280,50,390,80,DOWN,RIGHT,150,140,55,True,False,True,True,3021,3020,False,False,RIGHT,RIGHT
100,400,100,410,110,440,DOWN,RIGHT,50,40,22,True,True,False,True,1082,1081,False,False,DOWN,DOWN
10,360,10,370,10,460,DOWN,EQUAL,100,90,25,True,True,False,True,1298,1297,True,False,DOWN,DOWN
350,10,340,10,190,190,DOWN,LEFT,340,330,19,False,True,True,True,921,920,False,False,LEFT,LEFT
370,240,370,250,370,330,DOWN,EQUAL,90,80,51,True,True,False,True,2802,2801,False,False,DOWN,DOWN
70,20,70,10,100,10,UP,RIGHT,40,30,10,True,True,True,False,335,334,True,False,UP,UP
260,40,270,40,280,160,DOWN,RIGHT,140,130,32,True,False,True,True,1786,1785,True,False,RIGHT,RIGHT
380,250,380,240,380,200,UP,EQUAL,50,40,59,True,True,True,False,3186,3185,True,False,UP,UP
140,140,140,150,160,420,DOWN,RIGHT,300,290,43,True,True,False,True,2395,2394,False,False,DOWN,DOWN
240,30,230,30,160,420,DOWN,LEFT,470,460,43,False,True,True,True,2416,2415,False,False,LEFT,LEFT
300,60,300,50,310,120,DOWN,RIGHT,70,80,48,True,True,True,False,2612,2611,False,False,UP,UP
170,110,170,100,170,100,UP,EQUAL,10,0,6,True,True,True,False,144,244,True,False,UP,UP
340,250,340,240,170,100,UP,LEFT,320,310,6,True,True,True,False,191,190,True,False,UP,UP
110,390,100,390,80,410,DOWN,LEFT,50,40,34,False,True,True,True,1836,1835,False,False,LEFT,LEFT
430,360,430,350,40,240,UP,LEFT,510,500,57,True,True,True,False,3142,3141,True,False,UP,UP
180,0,170,0,130,10,DOWN,LEFT,60,50,3,False,True,False,True,-15,0,False,False,LEFT,LEFT
130,80,130,70,130,10,UP,EQUAL,70,60,3,True,False,True,True,-30,-31,True,False,RIGHT,UP
70,330,60,330,20,330,EQUAL,LEFT,50,40,33,False,True,True,True,1789,1788,False,False,LEFT,LEFT
140,190,140,180,260,150,UP,RIGHT,160,150,15,True,True,True,False,644,643,True,False,UP,UP
320,50,330,50,390,80,DOWN,RIGHT,100,90,55,True,False,True,True,3016,3015,False,False,RIGHT,RIGHT
180,400,180,410,160,410,DOWN,LEFT,30,20,54,True,True,False,True,2992,2991,True,False,DOWN,DOWN
340,210,340,220,370,230,DOWN,RIGHT,50,40,50,True,True,False,True,2769,2768,False,False,DOWN,DOWN
230,410,240,410,310,120,UP,RIGHT,370,360,48,True,True,True,False,2658,2657,True,True,UP,RIGHT
140,470,150,470,320,270,UP,RIGHT,380,370,26,True,False,True,False,1375,0,True,False,RIGHT,RIGHT
260,210,250,210,40,400,DOWN,LEFT,410,400,39,False,True,True,True,2214,2213,False,False,LEFT,LEFT
210,410,220,410,220,360,UP,RIGHT,60,50,40,True,False,True,True,2256,2255,True,False,RIGHT,RIGHT
430,80,440,80,440,80,EQUAL,RIGHT,10,0,60,True,False,True,True,3265,3365,True,False,RIGHT,RIGHT
270,160,280,160,280,160,EQUAL,RIGHT,10,0,32,True,False,True,True,1735,1835,False,False,RIGHT,RIGHT
300,70,300,60,310,120,DOWN,RIGHT,60,70,48,True,True,True,False,2613,2612,False,False,UP,UP
140,180,140,170,260,150,UP,RIGHT,150,140,15,True,True,True,False,643,642,True,False,UP,UP
400,10,390,10,190,190,DOWN,LEFT,390,380,19,False,True,True,True,926,925,False,False,LEFT,LEFT
220,210,210,210,40,210,EQUAL,LEFT,180,170,45,False,True,True,True,2462,2461,True,False,LEFT,LEFT
120,90,120,80,120,70,UP,EQUAL,20,10,31,True,True,True,False,1704,1703,True,False,UP,UP
20,410,20,420,30,410,EQUAL,RIGHT,10,20,41,True,True,False,True,2310,2309,True,False,DOWN,DOWN
200,120,200,130,50,250,DOWN,LEFT,280,270,7,True,True,False,True,231,230,False,False,DOWN,DOWN
30,410,30,420,30,440,DOWN,EQUAL,30,20,12,True,True,False,True,432,431,False,False,DOWN,DOWN
80,310,80,320,80,410,DOWN,EQUAL,100,90,34,True,True,False,True,1857,1856,False,False,DOWN,DOWN
320,180,320,190,20,330,DOWN,LEFT,450,440,33,True,True,False,True,1829,1828,False,False,DOWN,DOWN
280,180,280,170,460,20,UP,RIGHT,340,330,18,True,True,True,False,866,865,True,False,UP,UP
70,160,70,150,100,10,UP,RIGHT,180,170,10,True,True,True,False,349,348,True,False,UP,UP
180,210,170,210,40,210,EQUAL,LEFT,140,130,45,False,True,True,True,2458,2457,True,False,LEFT,LEFT
270,60,270,70,280,160,DOWN,RIGHT,110,100,32,True,True,False,True,1783,1782,True,False,DOWN,DOWN
20,290,20,300,30,410,DOWN,RIGHT,130,120,41,True,True,False,True,2322,2321,True,False,DOWN,DOWN
190,210,180,210,40,210,EQUAL,LEFT,150,140,45,False,True,True,True,2459,2458,True,False,LEFT,LEFT
160,310,170,310,430,320,DOWN,RIGHT,280,270,46,True,False,True,True,2521,2520,True,False,RIGHT,RIGHT
180,260,170,260,50,250,UP,LEFT,140,130,7,False,True,True,True,215,214,True,False,LEFT,LEFT
50,40,50,30,400,20,UP,RIGHT,370,360,8,True,True,True,False,281,280,True,False,UP,UP
180,270,180,280,180,360,DOWN,EQUAL,90,80,53,True,True,False,True,2904,2903,True,False,DOWN,DOWN
410,20,420,20,100,370,DOWN,LEFT,660,670,9,True,False,True,True,340,339,False,False,RIGHT,RIGHT
130,390,120,390,80,410,DOWN,LEFT,70,60,34,False,True,True,True,1838,1837,False,False,LEFT,LEFT
260,230,250,230,40,240,DOWN,LEFT,230,220,57,False,True,True,True,3112,3111,True,False,LEFT,LEFT
100,0,110,0,100,10,DOWN,EQUAL,10,20,10,True,False,False,True,330,0,True,False,RIGHT,RIGHT
160,320,160,310,390,80,UP,RIGHT,470,460,55,True,True,True,False,3059,3058,False,False,UP,UP
50,190,60,190,460,440,DOWN,RIGHT,660,650,58,True,False,True,True,3180,3179,True,False,RIGHT,RIGHT
220,40,230,40,280,160,DOWN,RIGHT,180,170,32,True,False,True,True,1790,1789,True,False,RIGHT,RIGHT
140,160,140,170,160,420,DOWN,RIGHT,280,270,43,True,True,False,True,2393,2392,False,False,DOWN,DOWN
280,190,290,190,460,440,DOWN,RIGHT,430,420,58,True,False,True,True,3157,3156,True,False,RIGHT,RIGHT
300,100,300,90,310,120,DOWN,RIGHT,30,40,48,True,True,True,False,2616,2615,False,False,UP,UP
320,40,310,40,120,50,DOWN,LEFT,210,200,27,True,True,True,False,1415,1414,True,False,UP,LEFT
130,450,120,450,210,440,UP,RIGHT,90,100,44,False,True,True,True,2448,2447,False,False,LEFT,LEFT
130,70,140,70,220,70,EQUAL,RIGHT,90,80,29,True,False,True,True,1541,1540,False,False,RIGHT,RIGHT
130,40,130,30,60,180,DOWN,LEFT,210,220,14,True,True,True,False,581,580,False,False,UP,UP
420,190,430,190,460,440,DOWN,RIGHT,290,280,58,True,False,True,True,3143,3142,True,False,RIGHT,RIGHT
300,190,310,190,460,440,DOWN,RIGHT,410,400,58,True,False,True,True,3155,3154,True,False,RIGHT,RIGHT
140,270,140,280,160,420,DOWN,RIGHT,170,160,43,True,True,False,True,2382,2381,False,False,DOWN,DOWN
200,190,200,200,50,250,DOWN,LEFT,210,200,7,True,True,False,True,224,223,False,False,DOWN,DOWN
80,240,70,240,40,240,EQUAL,LEFT,40,30,57,False,True,True,True,3093,3092,False,False,LEFT,LEFT
400,190,400,200,390,170,UP,LEFT,30,40,49,True,True,False,True,2688,2687,False,False,DOWN,DOWN
270,440,270,430,270,380,UP,EQUAL,60,50,35,True,True,True,False,1908,1907,True,False,UP,UP
100,120,100,110,100,50,UP,EQUAL,70,60,52,True,True,True,False,2840,2839,False,False,UP,UP
10,220,20,220,80,410,DOWN,RIGHT,260,250,34,True,True,True,False,1873,1872,True,False,UP,RIGHT
170,90,160,90,170,100,DOWN,EQUAL,10,20,6,False,True,True,True,158,157,False,False,LEFT,LEFT
450,240,450,230,370,230,UP,LEFT,90,80,50,True,False,True,True,2755,2754,True,False,RIGHT,UP
160,440,170,440,350,310,UP,RIGHT,320,310,23,True,False,True,True,1173,1172,False,False,RIGHT,RIGHT
90,410,80,410,30,410,EQUAL,LEFT,60,50,41,False,True,True,False,2289,2288,True,True,LEFT,LEFT
420,230,420,240,100,370,DOWN,LEFT,460,450,9,True,True,False,True,318,317,False,False,DOWN,DOWN
140,420,150,420,30,410,UP,LEFT,120,130,41,True,False,True,True,2297,2296,True,False,RIGHT,RIGHT
450,290,450,300,280,210,UP,LEFT,250,260,17,True,True,False,True,795,794,False,False,DOWN,DOWN
220,440,220,450,210,440,EQUAL,LEFT,10,20,44,True,True,False,True,2458,2457,False,False,DOWN,DOWN
180,120,170,120,30,440,DOWN,LEFT,470,460,12,False,True,True,True,476,475,False,False,LEFT,LEFT
420,50,420,60,340,300,DOWN,LEFT,330,320,5,True,True,False,True,130,129,False,False,DOWN,DOWN
100,410,110,410,220,360,UP,RIGHT,170,160,40,True,False,True,True,2267,2266,True,False,RIGHT,RIGHT
440,240,450,240,370,230,UP,LEFT,80,90,50,True,False,True,True,2756,2755,True,False,RIGHT,RIGHT
170,300,180,300,210,440,DOWN,RIGHT,180,170,44,True,False,True,True,2413,2412,True,False,RIGHT,RIGHT
310,230,320,230,460,190,UP,RIGHT,190,180,20,True,False,True,True,970,969,False,False,RIGHT,RIGHT
120,320,130,320,80,410,DOWN,LEFT,130,140,34,True,False,True,True,1852,1851,False,False,RIGHT,RIGHT
310,470,320,470,320,270,UP,RIGHT,210,200,26,True,False,True,False,1358,0,True,False,RIGHT,RIGHT
270,350,270,340,300,330,UP,RIGHT,50,40,36,True,True,True,False,2000,1999,True,False,UP,UP
450,210,450,220,460,440,DOWN,RIGHT,240,230,58,True,True,False,True,3138,3137,True,False,DOWN,DOWN
380,150,380,140,440,80,UP,RIGHT,130,120,60,True,True,True,False,3277,3276,True,False,UP,UP
80,10,70,10,180,80,DOWN,RIGHT,170,180,11,False,True,True,True,406,405,False,False,LEFT,LEFT
270,30,260,30,160,420,DOWN,LEFT,500,490,43,False,True,True,True,2419,2418,False,False,LEFT,LEFT
290,40,290,30,160,420,DOWN,LEFT,510,520,43,True,True,True,False,2422,2421,False,False,UP,UP
420,140,420,150,340,300,DOWN,LEFT,240,230,5,True,True,False,True,121,120,False,False,DOWN,DOWN
260,230,270,230,460,190,UP,RIGHT,240,230,20,True,False,True,True,975,974,False,False,RIGHT,RIGHT
390,60,390,70,390,80,DOWN,EQUAL,20,10,55,True,True,False,True,3008,3007,False,False,DOWN,DOWN
200,260,190,260,50,250,UP,LEFT,160,150,7,True,True,False,True,217,216,False,False,DOWN,LEFT
230,470,240,470,320,270,UP,RIGHT,290,280,26,True,False,True,False,1366,0,True,False,RIGHT,RIGHT
90,50,90,60,10,110,DOWN,LEFT,140,130,28,False,True,True,True,1492,1491,False,False,LEFT,DOWN
430,300,420,300,280,210,UP,LEFT,240,230,17,False,True,True,True,792,791,False,False,LEFT,LEFT
90,0,100,0,100,10,DOWN,RIGHT,20,10,10,True,False,False,True,331,0,True,False,RIGHT,RIGHT
350,300,350,290,180,280,UP,LEFT,190,180,24,True,True,True,False,1241,1240,True,False,UP,UP
10,350,10,360,10,460,DOWN,EQUAL,110,100,25,True,True,False,True,1299,1298,True,False,DOWN,DOWN
170,150,180,150,280,160,DOWN,RIGHT,120,110,32,True,False,True,True,1746,1745,True,True,RIGHT,RIGHT
200,440,210,440,350,310,UP,RIGHT,280,270,23,True,False,True,True,1169,1168,False,False,RIGHT,RIGHT
410,430,400,430,390,260,UP,LEFT,190,180,38,False,True,True,True,2170,2169,True,False,LEFT,LEFT
50,120,40,120,30,440,DOWN,LEFT,340,330,12,False,True,True,True,463,462,False,False,LEFT,LEFT
180,30,170,30,160,420,DOWN,LEFT,410,400,43,False,True,True,True,2410,2409,False,False,LEFT,LEFT
370,320,370,330,370,330,DOWN,EQUAL,10,0,51,True,True,False,True,2794,2894,False,False,DOWN,DOWN
450,370,450,380,460,440,DOWN,RIGHT,80,70,58,True,True,False,True,3122,3121,True,False,DOWN,DOWN
180,170,180,180,180,360,DOWN,EQUAL,190,180,53,True,True,False,True,2914,2913,True,False,DOWN,DOWN
280,450,270,450,310,120,EQUAL,EQUAL,360,370,48,False,True,True,True,2667,2666,False,False,LEFT,LEFT
390,260,390,270,360,430,DOWN,LEFT,200,190,56,True,True,False,True,3089,3088,False,False,DOWN,DOWN
450,410,450,420,460,440,DOWN,RIGHT,40,30,58,True,True,False,True,3118,3117,True,False,DOWN,DOWN
420,100,420,110,340,300,DOWN,LEFT,280,270,5,True,True,False,True,125,124,False,False,DOWN,DOWN
60,210,50,210,40,400,DOWN,LEFT,210,200,39,False,True,True,True,2194,2193,False,False,LEFT,LEFT
450,330,450,340,460,440,DOWN,RIGHT,120,110,58,True,True,False,True,3126,3125,True,False,DOWN,DOWN
180,450,190,450,270,380,UP,RIGHT,160,150,35,True,False,True,True,1918,1917,False,False,RIGHT,RIGHT
120,50,110,50,10,110,EQUAL,EQUAL,170,160,28,False,True,True,True,1495,1494,False,False,LEFT,LEFT
50,230,50,220,400,20,UP,RIGHT,560,550,8,True,True,True,False,300,299,True,False,UP,UP
390,430,380,430,390,260,UP,EQUAL,170,180,38,False,True,True,True,2168,2167,True,False,LEFT,LEFT
70,110,70,100,100,10,UP,RIGHT,130,120,10,True,True,True,False,344,343,True,False,UP,UP
430,340,430,330,40,240,UP,LEFT,490,480,57,True,True,True,False,3140,3139,True,False,UP,UP
290,0,300,0,420,20,DOWN,RIGHT,150,140,4,True,False,False,True,47,0,False,False,RIGHT,RIGHT
50,260,50,250,50,250,UP,EQUAL,10,0,7,False,True,True,True,202,302,True,False,LEFT,UP
200,250,200,260,50,250,EQUAL,LEFT,150,160,7,True,True,False,True,218,217,False,False,DOWN,DOWN
190,120,180,120,30,440,DOWN,LEFT,480,470,12,False,True,True,True,477,476,False,False,LEFT,LEFT
320,150,320,140,120,50,UP,LEFT,300,290,27,True,True,True,False,1426,1425,True,False,UP,UP
380,320,380,310,380,200,UP,EQUAL,120,110,59,True,True,True,False,3193,3192,True,True,UP,UP
450,400,450,410,460,440,DOWN,RIGHT,50,40,58,True,True,False,True,3119,3118,True,False,DOWN,DOWN
380,260,380,250,380,200,UP,EQUAL,60,50,59,True,True,True,False,3187,3186,True,False,UP,UP
100,360,100,370,110,440,DOWN,RIGHT,90,80,22,False,True,True,True,1086,1085,False,False,LEFT,DOWN
140,300,150,300,160,420,DOWN,RIGHT,140,130,43,True,True,False,True,2379,2378,False,False,DOWN,RIGHT
430,310,430,320,430,320,DOWN,EQUAL,10,0,46,True,False,True,True,2494,2594,True,False,RIGHT,DOWN
160,340,160,350,80,410,DOWN,LEFT,150,140,34,True,True,False,True,1846,1845,False,False,DOWN,DOWN
450,210,450,200,370,230,DOWN,LEFT,100,110,50,True,True,True,False,2752,2751,True,False,UP,UP
340,310,350,310,430,320,DOWN,RIGHT,100,90,46,True,False,True,True,2503,2502,True,False,RIGHT,RIGHT
270,230,280,230,460,190,UP,RIGHT,230,220,20,True,False,True,True,974,973,False,False,RIGHT,RIGHT
130,40,140,40,280,160,DOWN,RIGHT,270,260,32,True,False,True,True,1799,1798,True,False,RIGHT,RIGHT
370,310,360,310,340,300,UP,LEFT,40,30,5,False,True,True,True,99,98,True,False,LEFT,LEFT
150,230,140,230,40,240,DOWN,LEFT,120,110,57,False,True,True,True,3101,3100,True,False,LEFT,LEFT
100,190,110,190,460,440,DOWN,RIGHT,610,600,58,True,False,True,True,3175,3174,True,False,RIGHT,RIGHT
190,470,200,470,320,270,UP,RIGHT,330,320,26,True,False,True,False,1370,0,True,False,RIGHT,RIGHT
320,190,320,180,120,50,UP,LEFT,340,330,27,True,True,True,False,1430,1429,True,False,UP,UP
100,310,110,310,110,440,DOWN,RIGHT,140,130,22,True,False,True,True,1095,1094,False,False,RIGHT,RIGHT
290,190,290,180,290,50,UP,EQUAL,140,130,42,True,True,True,False,2336,2335,False,False,UP,UP
10,420,10,430,10,460,DOWN,EQUAL,40,30,25,True,True,False,True,1292,1291,True,False,DOWN,DOWN
90,70,90,80,10,110,DOWN,LEFT,120,110,28,True,True,False,True,1490,1489,False,False,DOWN,DOWN
80,310,90,310,430,320,DOWN,RIGHT,360,350,46,True,False,True,True,2529,2528,True,False,RIGHT,RIGHT
110,300,110,290,100,50,UP,LEFT,260,250,52,True,True,True,False,2859,2858,True,False,UP,UP
140,300,150,300,290,50,UP,RIGHT,400,390,42,True,False,True,True,2362,2361,False,False,RIGHT,RIGHT
370,250,370,260,370,330,DOWN,EQUAL,80,70,51,True,True,False,True,2801,2800,False,False,DOWN,DOWN
100,440,100,430,130,70,UP,RIGHT,400,390,13,True,False,True,True,523,522,False,False,RIGHT,UP
160,290,160,280,390,80,UP,RIGHT,440,430,55,True,True,True,False,3056,3055,False,False,UP,UP
90,470,100,470,320,270,UP,RIGHT,430,420,26,True,False,True,False,1380,0,True,False,RIGHT,RIGHT
190,280,180,280,180,280,EQUAL,LEFT,10,0,24,False,True,True,True,1223,1323,True,False,LEFT,LEFT
420,50,420,60,100,370,DOWN,LEFT,640,630,9,True,True,False,True,336,335,False,False,DOWN,DOWN
140,280,130,280,30,410,DOWN,LEFT,240,230,41,False,True,True,True,2335,2334,True,False,LEFT,LEFT
350,420,340,420,360,430,DOWN,RIGHT,20,30,56,False,True,True,True,3069,3068,True,False,LEFT,LEFT
180,260,180,270,180,360,DOWN,EQUAL,100,90,53,True,True,False,True,2905,2904,True,False,DOWN,DOWN
50,410,60,410,220,360,UP,RIGHT,220,210,40,True,False,True,True,2272,2271,True,False,RIGHT,RIGHT
20,380,20,390,30,410,DOWN,RIGHT,40,30,41,True,True,False,True,2313,2312,True,False,DOWN,DOWN
320,230,310,230,40,240,DOWN,LEFT,290,280,57,False,True,True,True,3118,3117,True,False,LEFT,LEFT
340,150,340,140,170,100,UP,LEFT,220,210,6,True,True,True,False,181,180,True,False,UP,UP
390,370,380,370,100,370,EQUAL,LEFT,290,280,9,False,True,True,True,301,300,True,False,LEFT,LEFT
430,350,430,360,280,450,DOWN,LEFT,250,240,47,True,True,False,True,2591,2590,False,False,DOWN,DOWN
420,310,410,310,340,300,UP,LEFT,90,80,5,True,True,False,True,104,103,False,False,DOWN,LEFT
60,190,60,200,260,150,UP,RIGHT,240,250,15,True,True,False,True,658,657,True,False,DOWN,DOWN
120,120,110,120,30,440,DOWN,LEFT,410,400,12,False,True,True,True,470,469,False,False,LEFT,LEFT
120,260,110,260,50,250,UP,LEFT,80,70,7,False,True,True,True,209,208,True,False,LEFT,LEFT
120,330,110,330,20,330,EQUAL,LEFT,100,90,33,False,True,True,True,1794,1793,False,False,LEFT,LEFT
330,10,320,10,190,190,DOWN,LEFT,320,310,19,False,True,True,True,919,918,False,False,LEFT,LEFT
110,50,120,50,180,360,DOWN,RIGHT,380,370,53,True,False,True,True,2933,2932,False,False,RIGHT,RIGHT
210,10,200,10,190,190,DOWN,LEFT,200,190,19,False,True,True,True,907,906,False,False,LEFT,LEFT
430,320,430,310,40,240,UP,LEFT,470,460,57,True,True,True,False,3138,3137,True,False,UP,UP
140,280,140,290,160,420,DOWN,RIGHT,160,150,43,True,True,False,True,2381,2380,False,False,DOWN,DOWN
370,430,360,430,390,260,UP,RIGHT,190,200,38,False,True,True,True,2166,2165,True,False,LEFT,LEFT
50,130,50,120,400,20,UP,RIGHT,460,450,8,True,True,True,False,290,289,True,False,UP,UP
230,30,220,30,160,420,DOWN,LEFT,460,450,43,False,True,True,True,2415,2414,False,False,LEFT,LEFT
390,380,390,390,360,430,DOWN,LEFT,80,70,56,True,True,False,True,3077,3076,False,False,DOWN,DOWN
360,230,370,230,460,190,UP,RIGHT,140,130,20,True,False,True,True,965,964,False,False,RIGHT,RIGHT
340,430,330,430,390,260,UP,RIGHT,220,230,38,False,True,True,True,2163,2162,True,False,LEFT,LEFT
420,330,420,340,100,370,DOWN,LEFT,360,350,9,True,True,False,True,308,307,False,False,DOWN,DOWN
140,400,140,410,160,410,DOWN,RIGHT,30,20,54,True,False,True,True,2970,2969,True,True,RIGHT,DOWN
400,130,400,140,390,170,DOWN,LEFT,50,40,49,True,False,True,True,2694,2693,False,False,RIGHT,DOWN
120,280,120,270,130,70,UP,RIGHT,220,210,13,True,True,True,False,505,504,False,False,UP,UP
270,440,280,440,350,310,UP,RIGHT,210,200,23,True,False,True,True,1162,1161,False,False,RIGHT,RIGHT
50,90,50,80,400,20,UP,RIGHT,420,410,8,True,True,True,False,286,285,True,False,UP,UP
70,250,70,240,100,10,UP,RIGHT,270,260,10,True,True,True,False,358,357,True,False,UP,UP
30,230,30,240,430,320,DOWN,RIGHT,490,480,46,True,True,False,True,2542,2541,True,False,DOWN,DOWN
20,100,20,110,10,110,DOWN,LEFT,20,10,28,True,True,False,True,1480,1479,False,False,DOWN,DOWN
160,120,160,110,390,80,UP,RIGHT,270,260,55,True,True,True,False,3039,3038,False,False,UP,UP
450,220,450,230,450,270,DOWN,EQUAL,50,40,16,True,False,True,True,701,700,False,False,RIGHT,DOWN
120,70,120,80,130,10,UP,RIGHT,70,80,3,True,True,False,True,-28,-29,True,False,DOWN,DOWN
100,210,90,210,40,210,EQUAL,LEFT,60,50,45,False,True,True,True,2450,2449,True,False,LEFT,LEFT
80,440,80,450,270,380,UP,RIGHT,250,260,35,True,True,False,True,1929,1928,False,False,DOWN,DOWN
210,230,220,230,460,190,UP,RIGHT,290,280,20,True,False,True,True,980,979,False,False,RIGHT,RIGHT
380,210,370,210,40,400,DOWN,LEFT,530,520,39,False,True,True,True,2226,2225,False,False,LEFT,LEFT
360,430,370,430,40,240,EQUAL,EQUAL,510,520,57,True,False,False,True,3156,3155,False,False,RIGHT,RIGHT
90,420,100,420,30,410,UP,LEFT,70,80,41,True,False,True,True,2302,2301,True,False,RIGHT,RIGHT
450,120,450,130,120,80,UP,LEFT,370,380,61,True,True,False,True,3360,3359,True,True,DOWN,DOWN
280,330,270,330,20,330,EQUAL,LEFT,260,250,33,False,True,True,True,1810,1809,False,False,LEFT,LEFT
100,390,90,390,80,410,DOWN,LEFT,40,30,34,False,True,True,True,1835,1834,False,False,LEFT,LEFT
450,200,450,210,460,440,DOWN,RIGHT,250,240,58,True,True,False,True,3139,3138,True,False,DOWN,DOWN
270,340,270,330,300,330,UP,RIGHT,40,30,36,True,True,True,False,1999,1998,True,False,UP,UP
70,360,70,350,100,10,UP,RIGHT,380,370,10,True,True,True,False,369,368,True,False,UP,UP
140,260,140,270,160,420,DOWN,RIGHT,180,170,43,True,True,False,True,2383,2382,False,False,DOWN,DOWN
160,80,170,80,180,80,EQUAL,RIGHT,20,10,11,True,False,True,True,389,388,True,False,RIGHT,RIGHT
350,310,350,300,180,280,EQUAL,EQUAL,200,190,24,True,True,True,False,1242,1241,True,False,UP,UP
300,310,310,310,430,320,DOWN,RIGHT,140,130,46,True,False,True,True,2507,2506,True,False,RIGHT,RIGHT
320,250,320,260,20,330,DOWN,LEFT,380,370,33,True,True,False,True,1822,1821,False,False,DOWN,DOWN
430,400,430,410,280,450,DOWN,LEFT,200,190,47,True,True,False,True,2586,2585,False,False,DOWN,DOWN
390,290,390,300,360,430,DOWN,LEFT,170,160,56,True,True,False,True,3086,3085,False,False,DOWN,DOWN
390,130,390,140,360,430,DOWN,LEFT,330,320,56,True,True,False,True,3102,3101,False,False,DOWN,DOWN
50,120,50,110,400,20,UP,RIGHT,450,440,8,True,True,True,False,289,288,True,False,UP,UP
330,190,340,190,460,440,DOWN,RIGHT,380,370,58,True,False,True,True,3152,3151,True,False,RIGHT,RIGHT
340,170,340,160,170,100,UP,LEFT,240,230,6,True,True,True,False,183,182,True,False,UP,UP
50,300,60,300,210,440,DOWN,RIGHT,300,290,44,True,True,True,False,2425,2424,True,False,UP,RIGHT
70,320,70,310,100,10,UP,RIGHT,340,330,10,True,True,True,False,365,364,True,False,UP,UP
30,370,30,380,30,440,DOWN,EQUAL,70,60,12,False,True,True,True,436,435,False,False,LEFT,DOWN
110,210,110,200,100,50,UP,LEFT,170,160,52,True,True,True,False,2850,2849,True,False,UP,UP
340,100,340,90,170,100,EQUAL,LEFT,170,180,6,True,True,True,False,176,175,True,False,UP,UP
420,230,420,240,340,300,DOWN,LEFT,150,140,5,True,True,False,True,112,111,False,False,DOWN,DOWN
200,230,210,230,460,190,UP,RIGHT,300,290,20,True,False,True,True,981,980,False,False,RIGHT,RIGHT
150,300,150,310,160,420,DOWN,RIGHT,130,120,43,True,False,True,True,2378,2377,False,False,RIGHT,DOWN
300,110,300,100,310,120,DOWN,RIGHT,20,30,48,True,True,True,False,2617,2616,False,False,UP,UP
290,180,290,170,290,50,UP,EQUAL,130,120,42,True,True,True,False,2335,2334,False,False,UP,UP
450,230,450,240,450,270,DOWN,EQUAL,40,30,16,True,True,False,True,700,699,False,False,DOWN,DOWN
40,210,40,220,30,440,DOWN,LEFT,240,230,12,True,True,False,True,453,452,False,False,DOWN,DOWN
320,170,320,180,20,330,DOWN,LEFT,460,450,33,True,True,False,True,1830,1829,False,False,DOWN,DOWN
370,20,380,20,400,20,EQUAL,RIGHT,30,20,8,True,False,True,True,243,242,False,False,RIGHT,RIGHT
380,190,380,180,440,80,UP,RIGHT,170,160,60,True,True,True,False,3281,3280,True,False,UP,UP
190,130,190,140,190,190,DOWN,EQUAL,60,50,19,True,True,False,True,891,890,False,False,DOWN,DOWN
390,320,390,310,390,260,UP,EQUAL,60,50,38,True,True,True,False,2137,2136,False,False,UP,UP
170,120,160,120,30,440,DOWN,LEFT,460,450,12,False,True,True,True,475,474,False,False,LEFT,LEFT
190,350,190,360,210,440,DOWN,RIGHT,110,100,44,True,True,False,True,2406,2405,True,False,DOWN,DOWN
70,50,70,60,180,80,DOWN,RIGHT,140,130,11,True,True,False,True,401,400,False,False,DOWN,DOWN
120,310,130,310,430,320,DOWN,RIGHT,320,310,46,True,False,True,True,2525,2524,True,False,RIGHT,RIGHT
290,390,290,380,390,260,UP,RIGHT,230,220,38,True,True,True,False,2154,2153,True,False,UP,UP
70,220,80,220,260,150,UP,RIGHT,260,250,15,True,False,True,True,654,653,True,False,RIGHT,RIGHT
240,10,250,10,400,20,DOWN,RIGHT,170,160,8,True,False,True,True,259,258,False,False,RIGHT,RIGHT
350,430,360,430,360,430,EQUAL,RIGHT,10,0,56,True,False,False,True,3056,3156,False,False,RIGHT,RIGHT
430,260,430,250,40,240,UP,LEFT,410,400,57,True,True,True,False,3132,3131,True,False,UP,UP
320,320,320,310,310,120,UP,LEFT,210,200,48,True,True,True,False,2640,2639,False,False,UP,UP
170,300,180,300,290,50,UP,RIGHT,370,360,42,True,False,True,True,2359,2358,False,False,RIGHT,RIGHT
210,210,200,210,40,400,DOWN,LEFT,360,350,39,False,True,True,True,2209,2208,False,False,LEFT,LEFT
300,260,290,260,150,260,EQUAL,LEFT,150,140,21,False,True,True,True,1023,1022,False,False,LEFT,LEFT
320,90,310,90,370,230,DOWN,RIGHT,190,200,50,False,True,True,True,2727,2726,True,False,LEFT,LEFT
360,450,350,450,280,450,EQUAL,LEFT,80,70,47,False,True,True,True,2574,2573,False,False,LEFT,LEFT
200,210,190,210,40,400,DOWN,LEFT,350,340,39,False,True,True,True,2208,2207,False,False,LEFT,LEFT
140,410,150,410,160,410,EQUAL,RIGHT,20,10,54,True,True,False,False,2969,2968,True,True,DOWN,RIGHT
160,80,160,70,390,80,EQUAL,RIGHT,230,240,55,True,True,True,False,3035,3034,False,False,UP,UP
100,390,100,380,130,70,UP,RIGHT,350,340,13,True,True,True,False,518,517,True,False,UP,UP
300,330,290,330,20,330,EQUAL,LEFT,280,270,33,False,True,True,True,1812,1811,False,False,LEFT,LEFT
200,300,210,300,290,50,UP,RIGHT,340,330,42,True,False,True,True,2356,2355,False,False,RIGHT,RIGHT
170,420,160,420,160,410,UP,LEFT,20,10,54,False,True,True,True,2989,2988,True,False,LEFT,LEFT
400,310,390,310,340,300,UP,LEFT,70,60,5,False,True,True,True,102,101,True,False,LEFT,LEFT
280,230,280,220,280,210,UP,EQUAL,20,10,17,True,True,True,False,770,769,True,False,UP,UP
180,130,180,140,180,360,DOWN,EQUAL,230,220,53,True,True,False,True,2918,2917,True,False,DOWN,DOWN
230,280,220,280,180,280,EQUAL,LEFT,50,40,24,False,True,True,True,1227,1226,True,False,LEFT,LEFT
170,0,160,0,130,10,DOWN,LEFT,50,40,3,False,True,False,True,-16,0,False,False,LEFT,LEFT
140,170,140,180,160,420,DOWN,RIGHT,270,260,43,True,True,False,True,2392,2391,False,False,DOWN,DOWN
220,390,220,380,220,360,UP,EQUAL,30,20,40,True,True,True,False,2253,2252,True,False,UP,UP
250,190,260,190,460,440,DOWN,RIGHT,460,450,58,True,False,True,True,3160,3159,True,False,RIGHT,RIGHT
220,40,210,40,120,50,DOWN,LEFT,110,100,27,False,True,True,True,1405,1404,True,False,LEFT,LEFT
360,20,370,20,400,20,EQUAL,RIGHT,40,30,8,True,False,True,True,244,243,False,False,RIGHT,RIGHT
390,300,390,310,360,430,DOWN,LEFT,160,150,56,True,True,False,True,3085,3084,False,False,DOWN,DOWN
210,40,200,40,120,50,DOWN,LEFT,100,90,27,False,True,True,True,1404,1403,True,False,LEFT,LEFT
390,300,390,290,390,260,UP,EQUAL,40,30,38,True,True,True,False,2135,2134,False,False,UP,UP
40,280,30,280,10,460,DOWN,LEFT,210,200,25,False,True,True,True,1309,1308,True,False,LEFT,LEFT
130,130,130,120,130,70,UP,EQUAL,60,50,13,True,True,True,False,489,488,False,False,UP,UP
70,410,70,400,160,410,EQUAL,RIGHT,90,100,54,True,True,True,False,2978,2977,True,False,UP,UP
80,300,90,300,290,50,UP,RIGHT,460,450,42,True,False,True,True,2368,2367,False,False,RIGHT,RIGHT
160,410,160,400,390,80,EQUAL,EQUAL,560,550,55,True,False,True,False,3068,3067,False,False,RIGHT,UP
410,190,420,190,460,440,DOWN,RIGHT,300,290,58,True,False,True,True,3144,3143,True,False,RIGHT,RIGHT
50,210,40,210,40,210,EQUAL,LEFT,10,0,45,False,True,True,True,2445,2545,True,False,LEFT,LEFT
380,170,380,180,150,260,DOWN,LEFT,320,310,21,True,True,False,True,1040,1039,True,False,DOWN,DOWN
50,200,50,190,400,20,UP,RIGHT,530,520,8,True,True,True,False,297,296,True,False,UP,UP
150,390,150,400,160,420,DOWN,RIGHT,40,30,43,True,True,False,True,2369,2368,False,False,DOWN,DOWN
400,220,390,220,390,170,UP,LEFT,60,50,49,True,True,False,True,2685,2684,False,True,DOWN,LEFT
270,250,270,240,40,210,UP,LEFT,270,260,45,True,True,True,False,2471,2470,False,False,UP,UP
330,430,340,430,360,430,EQUAL,RIGHT,30,20,56,True,False,False,True,3058,3057,False,False,RIGHT,RIGHT
170,50,180,50,180,360,DOWN,RIGHT,320,310,53,True,False,True,True,2927,2926,False,False,RIGHT,RIGHT
250,50,260,50,390,80,DOWN,RIGHT,170,160,55,True,False,True,True,3023,3022,False,False,RIGHT,RIGHT
430,430,420,430,390,260,UP,LEFT,210,200,38,False,True,True,True,2172,2171,True,False,LEFT,LEFT
290,290,290,280,290,50,UP,EQUAL,240,230,42,True,True,True,False,2346,2345,False,False,UP,UP
270,300,280,300,290,50,UP,RIGHT,270,260,42,True,False,True,True,2349,2348,False,False,RIGHT,RIGHT
390,270,390,280,360,430,DOWN,LEFT,190,180,56,True,True,False,True,3088,3087,False,False,DOWN,DOWN
140,410,130,410,30,410,EQUAL,LEFT,110,100,41,False,True,True,False,2294,2293,True,True,LEFT,LEFT
110,210,100,210,40,400,DOWN,LEFT,260,250,39,False,True,True,True,2199,2198,False,False,LEFT,LEFT
140,180,140,190,160,420,DOWN,RIGHT,260,250,43,True,True,False,True,2391,2390,False,False,DOWN,DOWN
180,210,170,210,40,400,DOWN,LEFT,330,320,39,False,True,True,True,2206,2205,False,False,LEFT,LEFT
90,80,90,90,10,110,DOWN,LEFT,110,100,28,True,True,False,True,1489,1488,False,False,DOWN,DOWN
10,290,10,300,10,460,DOWN,EQUAL,170,160,25,True,True,False,True,1305,1304,True,False,DOWN,DOWN
350,100,360,100,370,230,DOWN,RIGHT,150,140,50,True,False,False,True,2717,2716,True,True,RIGHT,RIGHT
120,30,120,40,100,10,UP,LEFT,40,50,10,True,True,False,True,325,324,True,False,DOWN,DOWN
280,280,270,280,180,280,EQUAL,LEFT,100,90,24,False,True,True,True,1232,1231,True,False,LEFT,LEFT
420,260,420,270,340,300,DOWN,LEFT,120,110,5,True,True,False,True,109,108,False,False,DOWN,DOWN
100,420,110,420,30,410,UP,LEFT,80,90,41,True,False,True,True,2301,2300,True,False,RIGHT,RIGHT
290,210,280,210,40,400,DOWN,LEFT,440,430,39,False,True,True,True,2217,2216,False,False,LEFT,LEFT
50,430,50,420,210,440,DOWN,RIGHT,170,180,44,True,True,True,False,2438,2437,True,False,UP,UP
110,50,100,50,10,110,DOWN,LEFT,160,150,28,False,True,True,True,1494,1493,False,False,LEFT,LEFT
30,400,30,410,30,440,DOWN,EQUAL,40,30,12,True,True,False,True,433,432,False,False,DOWN,DOWN
130,80,140,80,180,80,EQUAL,RIGHT,50,40,11,True,False,True,True,392,391,True,False,RIGHT,RIGHT
180,350,180,360,180,360,DOWN,EQUAL,10,0,53,True,True,False,True,2896,2996,True,False,DOWN,DOWN
120,120,120,110,120,70,UP,EQUAL,50,40,31,False,True,True,True,1707,1706,False,False,LEFT,UP
30,410,30,400,290,50,EQUAL,EQUAL,620,610,42,False,False,True,False,2384,2383,True,True,LEFT,UP
260,50,270,50,390,80,DOWN,RIGHT,160,150,55,True,False,True,True,3022,3021,False,False,RIGHT,RIGHT
20,240,20,230,460,440,DOWN,RIGHT,640,650,58,False,True,True,True,3188,3187,False,False,LEFT,UP
200,80,200,90,50,250,DOWN,LEFT,320,310,7,True,True,False,True,235,234,False,False,DOWN,DOWN
400,140,400,150,390,170,DOWN,LEFT,40,30,49,True,True,False,True,2693,2692,False,False,DOWN,DOWN
200,450,210,450,270,380,UP,RIGHT,140,130,35,True,False,True,True,1916,1915,False,False,RIGHT,RIGHT
420,160,420,170,100,370,DOWN,LEFT,530,520,9,True,True,False,True,325,324,False,False,DOWN,DOWN
70,270,70,260,100,10,UP,RIGHT,290,280,10,True,True,True,False,360,359,True,False,UP,UP
150,330,140,330,20,330,EQUAL,LEFT,130,120,33,False,True,True,True,1797,1796,False,False,LEFT,LEFT
430,380,430,370,40,240,UP,LEFT,530,520,57,True,True,True,False,3144,3143,True,False,UP,UP
400,240,410,240,370,230,UP,LEFT,40,50,50,True,False,True,True,2760,2759,True,False,RIGHT,RIGHT
90,260,80,260,50,250,UP,LEFT,50,40,7,False,True,True,True,206,205,True,False,LEFT,LEFT
320,160,320,170,20,330,DOWN,LEFT,470,460,33,True,False,True,True,1831,1830,False,False,RIGHT,DOWN
280,110,280,120,270,120,DOWN,LEFT,20,10,30,True,True,False,True,1623,1622,False,False,DOWN,DOWN
290,280,280,280,180,280,EQUAL,LEFT,110,100,24,False,True,True,True,1233,1232,True,False,LEFT,LEFT
250,120,240,120,120,70,UP,LEFT,180,170,31,False,True,True,True,1720,1719,False,False,LEFT,LEFT
60,190,70,190,460,440,DOWN,RIGHT,650,640,58,True,False,True,True,3179,3178,True,False,RIGHT,RIGHT
20,200,20,190,460,440,DOWN,RIGHT,680,690,58,True,True,True,False,3184,3183,False,False,UP,UP
130,60,130,50,60,180,DOWN,LEFT,190,200,14,True,True,True,False,583,582,False,False,UP,UP
100,310,100,300,130,70,UP,RIGHT,270,260,13,True,True,True,False,510,509,True,False,UP,UP
320,160,320,150,120,50,UP,LEFT,310,300,27,True,True,True,False,1427,1426,True,False,UP,UP
420,310,430,310,430,320,DOWN,RIGHT,20,10,46,True,False,True,True,2495,2494,True,False,RIGHT,RIGHT
50,170,50,160,400,20,UP,RIGHT,500,490,8,True,True,True,False,294,293,True,False,UP,UP
310,300,300,300,280,210,UP,LEFT,120,110,17,False,True,True,True,780,779,False,False,LEFT,LEFT
290,410,290,400,390,260,UP,RIGHT,250,240,38,True,True,True,False,2156,2155,True,False,UP,UP
140,370,130,370,100,370,EQUAL,LEFT,40,30,9,False,True,True,True,276,275,True,False,LEFT,LEFT
90,120,80,120,30,440,DOWN,LEFT,380,370,12,False,True,True,True,467,466,False,False,LEFT,LEFT
160,260,150,260,150,260,EQUAL,LEFT,10,0,21,False,True,True,True,1009,1109,False,False,LEFT,LEFT
290,230,300,230,460,190,UP,RIGHT,210,200,20,True,False,True,True,972,971,False,False,RIGHT,RIGHT
320,370,320,360,320,270,UP,EQUAL,100,90,26,True,True,True,False,1347,1346,True,False,UP,UP
140,230,140,240,160,420,DOWN,RIGHT,210,200,43,True,True,False,True,2386,2385,False,False,DOWN,DOWN
130,40,130,30,130,10,UP,EQUAL,30,20,3,True,True,True,False,-34,-35,True,False,UP,UP
120,360,110,360,110,440,DOWN,LEFT,90,80,22,True,True,False,True,1088,1087,False,False,DOWN,LEFT
160,330,160,320,390,80,UP,RIGHT,480,470,55,True,True,True,False,3060,3059,False,False,UP,UP
20,220,20,210,460,440,DOWN,RIGHT,660,670,58,True,True,True,False,3186,3185,False,False,UP,UP
200,50,210,50,390,80,DOWN,RIGHT,220,210,55,True,False,True,True,3028,3027,False,False,RIGHT,RIGHT
410,230,420,230,460,190,UP,RIGHT,90,80,20,True,False,True,True,960,959,False,False,RIGHT,RIGHT
190,380,190,390,210,440,DOWN,RIGHT,80,70,44,True,True,False,True,2403,2402,True,False,DOWN,DOWN
370,130,380,130,390,170,DOWN,RIGHT,60,50,49,True,False,True,True,2697,2696,False,False,RIGHT,RIGHT
170,410,180,410,220,360,UP,RIGHT,100,90,40,True,False,True,True,2260,2259,True,False,RIGHT,RIGHT
80,80,90,80,180,80,EQUAL,RIGHT,100,90,11,True,False,True,True,397,396,True,False,RIGHT,RIGHT
10,160,10,150,10,110,UP,EQUAL,50,40,28,False,True,True,False,1469,1468,False,False,UP,UP
20,390,20,400,30,410,DOWN,RIGHT,30,20,41,True,True,False,True,2312,2311,True,False,DOWN,DOWN
310,110,310,120,310,120,DOWN,EQUAL,10,0,48,True,False,False,True,2604,2704,True,True,DOWN,DOWN
140,280,130,280,10,460,DOWN,LEFT,310,300,25,False,True,True,True,1319,1318,True,False,LEFT,LEFT
420,220,420,230,100,370,DOWN,LEFT,470,460,9,True,True,False,True,319,318,False,False,DOWN,DOWN
120,100,120,90,120,70,UP,EQUAL,30,20,31,True,True,True,False,1705,1704,True,False,UP,UP
420,190,420,200,340,300,DOWN,LEFT,190,180,5,True,True,False,True,116,115,False,False,DOWN,DOWN
100,90,100,80,100,50,UP,EQUAL,40,30,52,True,True,True,False,2837,2836,False,False,UP,UP
420,340,420,350,100,370,DOWN,LEFT,350,340,9,True,True,False,True,307,306,False,False,DOWN,DOWN
220,440,230,440,40,210,UP,LEFT,410,420,45,True,False,True,True,2495,2494,False,False,RIGHT,RIGHT
400,370,390,370,100,370,EQUAL,LEFT,300,290,9,False,True,True,True,302,301,True,False,LEFT,LEFT
110,410,100,410,30,410,EQUAL,LEFT,80,70,41,False,True,True,False,2291,2290,True,True,LEFT,LEFT
380,170,380,160,440,80,UP,RIGHT,150,140,60,True,True,True,False,3279,3278,True,False,UP,UP
160,110,160,120,160,420,DOWN,EQUAL,310,300,43,True,True,False,True,2400,2399,True,False,DOWN,DOWN
170,230,160,230,40,240,DOWN,LEFT,140,130,57,False,True,True,True,3103,3102,True,False,LEFT,LEFT
50,370,50,360,210,440,DOWN,RIGHT,230,240,44,True,True,True,False,2432,2431,True,False,UP,UP
160,160,160,150,390,80,UP,RIGHT,310,300,55,True,True,True,False,3043,3042,False,False,UP,UP
150,420,150,410,30,410,UP,LEFT,130,120,41,True,False,True,True,2296,2295,True,True,RIGHT,UP
180,100,180,110,180,360,DOWN,EQUAL,260,250,53,True,True,False,True,2921,2920,True,True,DOWN,DOWN
380,450,370,450,280,450,EQUAL,LEFT,100,90,47,False,True,True,True,2576,2575,False,False,LEFT,LEFT
110,280,100,280,10,460,DOWN,LEFT,280,270,25,False,True,True,True,1316,1315,True,False,LEFT,LEFT
300,350,310,350,390,260,UP,RIGHT,180,170,38,True,False,True,True,2149,2148,True,True,RIGHT,RIGHT
450,100,450,90,370,230,DOWN,LEFT,210,220,50,True,True,True,False,2741,2740,True,False,UP,UP
280,170,280,160,460,20,UP,RIGHT,330,320,18,True,True,True,False,865,864,True,False,UP,UP
180,440,190,440,350,310,UP,RIGHT,300,290,23,True,False,True,True,1171,1170,False,False,RIGHT,RIGHT
460,100,460,90,460,20,UP,EQUAL,80,70,18,True,True,True,False,840,839,False,False,UP,UP
150,50,160,50,130,10,UP,LEFT,60,70,3,True,False,True,True,-5,-6,False,False,RIGHT,RIGHT
210,70,220,70,220,70,EQUAL,RIGHT,10,0,29,True,False,True,True,1533,1633,False,False,RIGHT,RIGHT
190,360,190,370,210,440,DOWN,RIGHT,100,90,44,True,True,False,True,2405,2404,True,False,DOWN,DOWN
170,140,170,130,170,100,UP,EQUAL,40,30,6,True,False,True,False,147,146,True,False,UP,UP
210,120,200,120,30,440,DOWN,LEFT,500,490,12,False,True,True,True,479,478,False,False,LEFT,LEFT
70,470,80,470,320,270,UP,RIGHT,450,440,26,True,False,True,False,1382,0,True,False,RIGHT,RIGHT
130,190,140,190,460,440,DOWN,RIGHT,580,570,58,True,False,True,True,3172,3171,True,False,RIGHT,RIGHT
250,170,240,170,280,160,UP,RIGHT,40,50,32,False,True,True,True,1766,1765,False,False,LEFT,LEFT
380,120,380,110,440,80,UP,RIGHT,100,90,60,True,True,True,False,3274,3273,True,False,UP,UP
40,410,50,410,220,360,UP,RIGHT,230,220,40,True,True,False,True,2273,2272,True,False,DOWN,RIGHT
50,50,50,40,400,20,UP,RIGHT,380,370,8,True,True,True,False,282,281,True,False,UP,UP
160,110,160,120,170,100,UP,RIGHT,20,30,6,True,True,False,True,155,154,False,False,DOWN,DOWN
200,0,210,0,420,20,DOWN,RIGHT,240,230,4,True,False,False,True,56,0,False,False,RIGHT,RIGHT
300,470,310,470,320,270,UP,RIGHT,220,210,26,True,False,True,False,1359,0,True,False,RIGHT,RIGHT
90,30,100,30,400,20,UP,RIGHT,320,310,8,True,False,True,True,276,275,True,False,RIGHT,RIGHT
130,50,140,50,130,10,UP,EQUAL,40,50,3,True,False,True,True,-3,-4,False,False,RIGHT,RIGHT
160,350,160,360,80,410,DOWN,LEFT,140,130,34,True,True,False,True,1845,1844,False,False,DOWN,DOWN
120,70,120,80,100,10,UP,LEFT,80,90,10,True,True,False,True,321,320,True,False,DOWN,DOWN
70,60,70,70,180,80,DOWN,RIGHT,130,120,11,True,True,False,True,400,399,False,False,DOWN,DOWN
200,130,200,140,50,250,DOWN,LEFT,270,260,7,True,True,False,True,230,229,False,False,DOWN,DOWN
130,30,120,30,60,180,DOWN,LEFT,220,210,14,True,True,True,False,580,579,False,False,UP,LEFT
360,150,370,150,450,270,DOWN,RIGHT,210,200,16,True,False,True,True,717,716,False,False,RIGHT,RIGHT
270,410,270,400,40,210,UP,LEFT,430,420,45,True,True,True,False,2487,2486,False,False,UP,UP
440,450,430,450,380,200,UP,LEFT,310,300,59,False,True,True,True,3212,3211,False,False,LEFT,LEFT
80,30,90,30,400,20,UP,RIGHT,330,320,8,True,False,True,True,277,276,True,False,RIGHT,RIGHT
170,170,160,170,280,160,UP,RIGHT,120,130,32,False,True,True,True,1758,1757,False,False,LEFT,LEFT
170,90,170,80,50,250,DOWN,LEFT,280,290,7,True,True,True,False,243,242,True,False,UP,UP
140,50,130,50,120,50,EQUAL,LEFT,20,10,27,False,True,True,True,1396,1395,False,False,LEFT,LEFT
320,140,320,130,120,50,UP,LEFT,290,280,27,True,True,True,False,1425,1424,True,False,UP,UP
290,150,300,150,460,20,UP,RIGHT,300,290,18,True,False,True,True,862,861,True,False,RIGHT,RIGHT
420,70,420,80,100,370,DOWN,LEFT,620,610,9,True,True,False,True,334,333,False,False,DOWN,DOWN
400,80,410,80,440,80,EQUAL,RIGHT,40,30,60,True,False,True,True,3268,3267,True,False,RIGHT,RIGHT
100,350,100,340,130,70,UP,RIGHT,310,300,13,True,True,True,False,514,513,True,False,UP,UP
30,300,30,310,430,320,DOWN,RIGHT,420,410,46,True,True,False,True,2535,2534,True,False,DOWN,DOWN
300,90,290,90,170,100,DOWN,LEFT,140,130,6,False,True,True,True,171,170,False,False,LEFT,LEFT
250,160,260,160,280,160,EQUAL,RIGHT,30,20,32,True,False,True,False,1737,1736,False,False,RIGHT,RIGHT
230,300,240,300,290,50,UP,RIGHT,310,300,42,True,False,True,True,2353,2352,False,False,RIGHT,RIGHT
210,440,220,440,350,310,UP,RIGHT,270,260,23,True,False,True,True,1168,1167,False,False,RIGHT,RIGHT
170,190,180,190,460,440,DOWN,RIGHT,540,530,58,True,False,True,True,3168,3167,True,False,RIGHT,RIGHT
220,120,210,120,30,440,DOWN,LEFT,510,500,12,True,True,False,True,480,479,False,False,DOWN,LEFT
410,450,400,450,380,200,UP,LEFT,280,270,59,False,True,True,True,3209,3208,False,False,LEFT,LEFT
40,200,40,210,30,440,DOWN,LEFT,250,240,12,True,True,False,True,454,453,False,False,DOWN,DOWN
390,340,390,350,360,430,DOWN,LEFT,120,110,56,True,True,False,True,3081,3080,False,False,DOWN,DOWN
90,320,100,320,80,410,DOWN,LEFT,100,110,34,True,False,True,True,1855,1854,False,False,RIGHT,RIGHT
140,210,140,200,260,150,UP,RIGHT,180,170,15,True,True,True,False,646,645,True,False,UP,UP
50,220,50,210,400,20,UP,RIGHT,550,540,8,True,True,True,False,299,298,True,False,UP,UP
460,90,460,80,460,20,UP,EQUAL,70,60,18,True,True,True,False,839,838,False,False,UP,UP
400,330,410,330,440,370,DOWN,RIGHT,80,70,37,True,False,True,True,2086,2085,False,False,RIGHT,RIGHT
320,390,320,380,320,270,UP,EQUAL,120,110,26,True,True,True,False,1349,1348,True,False,UP,UP
90,280,80,280,10,460,DOWN,LEFT,260,250,25,False,True,True,True,1314,1313,True,False,LEFT,LEFT
310,130,320,130,390,170,DOWN,RIGHT,120,110,49,True,False,False,True,2703,2702,True,False,DOWN,RIGHT
240,50,250,50,390,80,DOWN,RIGHT,180,170,55,True,False,True,True,3024,3023,False,False,RIGHT,RIGHT
230,70,240,70,270,120,DOWN,RIGHT,90,80,30,True,False,True,True,1632,1631,False,False,RIGHT,RIGHT
370,270,370,280,370,330,DOWN,EQUAL,60,50,51,True,True,False,True,2799,2798,False,False,DOWN,DOWN
130,210,120,210,40,400,DOWN,LEFT,280,270,39,False,True,True,True,2201,2200,False,False,LEFT,LEFT
160,330,160,340,80,410,DOWN,LEFT,160,150,34,True,True,False,True,1847,1846,False,False,DOWN,DOWN
50,380,50,370,210,440,DOWN,RIGHT,220,230,44,True,True,True,False,2433,2432,True,False,UP,UP
70,70,70,80,180,80,DOWN,RIGHT,120,110,11,True,True,False,True,399,398,False,False,DOWN,DOWN
110,420,100,420,160,410,UP,RIGHT,60,70,54,False,True,True,True,2983,2982,True,False,LEFT,LEFT
100,370,100,380,110,440,DOWN,RIGHT,80,70,22,True,True,False,True,1085,1084,False,False,DOWN,DOWN
130,360,120,360,100,50,UP,LEFT,340,330,52,False,True,True,True,2867,2866,False,False,LEFT,LEFT
420,160,420,170,340,300,DOWN,LEFT,220,210,5,True,True,False,True,119,118,False,False,DOWN,DOWN
440,190,450,190,460,440,DOWN,RIGHT,270,260,58,True,False,True,True,3141,3140,True,False,RIGHT,RIGHT
70,240,70,230,100,10,UP,RIGHT,260,250,10,True,True,True,False,357,356,True,False,UP,UP
160,120,150,120,30,440,DOWN,LEFT,450,440,12,False,True,True,True,474,473,False,False,LEFT,LEFT
230,170,220,170,280,160,UP,RIGHT,60,70,32,False,True,True,True,1764,1763,False,False,LEFT,LEFT
110,230,110,220,100,50,UP,LEFT,190,180,52,True,True,True,False,2852,2851,True,False,UP,UP
50,140,50,130,400,20,UP,RIGHT,470,460,8,True,True,True,False,291,290,True,False,UP,UP
100,380,100,370,130,70,UP,RIGHT,340,330,13,True,True,True,False,517,516,True,False,UP,UP
370,10,360,10,190,190,DOWN,LEFT,360,350,19,False,True,True,True,923,922,False,False,LEFT,LEFT
390,210,390,220,360,430,DOWN,LEFT,250,240,56,True,True,False,True,3094,3093,False,False,DOWN,DOWN
430,430,430,420,40,240,UP,LEFT,580,570,57,True,False,True,True,3149,3148,False,False,RIGHT,UP
290,120,290,130,280,160,DOWN,LEFT,50,40,32,True,True,False,True,1775,1774,False,False,DOWN,DOWN
290,360,290,350,390,260,UP,RIGHT,200,190,38,True,True,True,False,2151,2150,True,False,UP,UP
90,10,80,10,180,80,DOWN,RIGHT,160,170,11,False,True,True,True,407,406,False,False,LEFT,LEFT
290,100,300,100,370,230,DOWN,RIGHT,210,200,50,True,True,False,True,2723,2722,True,True,DOWN,RIGHT
140,220,140,210,260,150,UP,RIGHT,190,180,15,True,False,True,True,647,646,True,False,RIGHT,UP
50,390,50,380,210,440,DOWN,RIGHT,210,220,44,True,True,True,False,2434,2433,True,False,UP,UP
320,180,320,170,120,50,UP,LEFT,330,320,27,True,True,True,False,1429,1428,True,False,UP,UP
340,240,340,230,170,100,UP,LEFT,310,300,6,True,True,True,False,190,189,True,False,UP,UP
180,40,190,40,280,160,DOWN,RIGHT,220,210,32,True,False,True,True,1794,1793,True,False,RIGHT,RIGHT
100,50,110,50,180,360,EQUAL,EQUAL,390,380,53,True,True,True,False,2934,2933,False,False,UP,RIGHT
120,400,130,400,160,410,DOWN,RIGHT,50,40,54,True,False,True,True,2972,2971,True,True,RIGHT,RIGHT
380,430,390,430,40,240,UP,LEFT,530,540,57,True,False,False,True,3154,3153,False,False,RIGHT,RIGHT
390,170,390,180,360,430,DOWN,LEFT,290,280,56,True,True,False,True,3098,3097,False,False,DOWN,DOWN
390,90,390,100,360,430,DOWN,LEFT,370,360,56,True,True,False,True,3106,3105,False,False,DOWN,DOWN
120,0,120,10,130,10,DOWN,RIGHT,20,10,3,False,True,False,True,-21,0,False,False,LEFT,DOWN
20,420,30,420,30,410,UP,RIGHT,20,10,41,True,True,False,True,2309,2308,True,False,DOWN,RIGHT
60,240,60,250,80,410,DOWN,RIGHT,190,180,34,True,True,False,True,1866,1865,True,True,DOWN,DOWN
370,150,380,150,450,270,DOWN,RIGHT,200,190,16,True,False,True,True,716,715,False,False,RIGHT,RIGHT
320,250,320,240,310,120,UP,LEFT,140,130,48,True,True,True,False,2633,2632,False,False,UP,UP
290,50,300,50,390,80,DOWN,RIGHT,130,120,55,True,False,True,True,3019,3018,False,False,RIGHT,RIGHT
100,300,110,300,290,50,UP,RIGHT,440,430,42,True,False,True,True,2366,2365,False,False,RIGHT,RIGHT
100,80,110,80,180,80,EQUAL,RIGHT,80,70,11,True,False,True,True,395,394,True,False,RIGHT,RIGHT
190,220,190,230,460,190,UP,RIGHT,300,310,20,True,True,False,True,983,982,False,False,DOWN,DOWN
420,150,420,160,100,370,DOWN,LEFT,540,530,9,True,True,False,True,326,325,False,False,DOWN,DOWN
390,200,390,190,390,170,UP,EQUAL,30,20,49,False,True,True,False,2682,2681,True,True,UP,UP
400,310,410,310,430,320,DOWN,RIGHT,40,30,46,True,False,True,True,2497,2496,True,False,RIGHT,RIGHT
280,290,280,280,280,210,UP,EQUAL,80,70,17,True,True,True,False,776,775,True,False,UP,UP
420,90,420,100,100,370,DOWN,LEFT,600,590,9,True,True,False,True,332,331,False,False,DOWN,DOWN
280,30,290,30,400,20,UP,RIGHT,130,120,8,True,False,True,True,253,252,False,False,RIGHT,RIGHT
400,150,410,150,460,20,UP,RIGHT,190,180,18,True,False,True,True,851,850,True,False,RIGHT,RIGHT
280,40,270,40,120,50,DOWN,LEFT,170,160,27,False,True,True,True,1411,1410,True,False,LEFT,LEFT
420,180,420,190,100,370,DOWN,LEFT,510,500,9,True,True,False,True,323,322,False,False,DOWN,DOWN
430,380,430,390,280,450,DOWN,LEFT,220,210,47,True,True,False,True,2588,2587,False,False,DOWN,DOWN
270,420,270,410,40,210,UP,LEFT,440,430,45,True,True,True,False,2488,2487,False,False,UP,UP
400,230,390,230,40,240,DOWN,LEFT,370,360,57,False,True,True,True,3126,3125,True,False,LEFT,LEFT
230,440,230,430,310,120,UP,RIGHT,400,390,48,True,True,True,False,2661,2660,True,False,UP,UP
270,370,270,360,40,210,UP,LEFT,390,380,45,True,True,True,False,2483,2482,False,False,UP,UP
380,230,380,240,150,260,DOWN,LEFT,260,250,21,True,True,False,True,1034,1033,True,False,DOWN,DOWN
10,340,10,350,10,460,DOWN,EQUAL,120,110,25,True,True,False,True,1300,1299,True,False,DOWN,DOWN
90,90,80,90,10,110,DOWN,LEFT,100,90,28,True,True,False,True,1488,1487,False,False,DOWN,LEFT
90,70,100,70,220,70,EQUAL,RIGHT,130,120,29,True,False,True,True,1545,1544,False,False,RIGHT,RIGHT
180,230,170,230,40,240,DOWN,LEFT,150,140,57,False,True,True,True,3104,3103,True,False,LEFT,LEFT
70,10,70,0,100,10,EQUAL,RIGHT,30,40,10,True,True,True,False,334,333,True,False,UP,UP
190,190,200,190,460,440,DOWN,RIGHT,520,510,58,True,False,True,True,3166,3165,True,False,RIGHT,RIGHT
460,220,460,210,460,190,UP,EQUAL,30,20,20,True,True,True,False,954,953,False,False,UP,UP
30,380,30,390,30,440,DOWN,EQUAL,60,50,12,True,True,False,True,435,434,False,False,DOWN,DOWN
280,260,280,250,280,210,UP,EQUAL,50,40,17,True,True,True,False,773,772,True,False,UP,UP
190,410,200,410,220,360,UP,RIGHT,80,70,40,True,False,True,True,2258,2257,True,False,RIGHT,RIGHT
320,110,320,100,120,50,UP,LEFT,260,250,27,True,True,True,False,1422,1421,True,False,UP,UP
320,290,320,280,320,270,UP,EQUAL,20,10,26,True,True,True,False,1339,1338,True,False,UP,UP
390,150,400,150,450,270,DOWN,RIGHT,180,170,16,True,False,True,True,714,713,False,False,RIGHT,RIGHT
190,370,190,380,210,440,DOWN,RIGHT,90,80,44,True,True,False,True,2404,2403,True,False,DOWN,DOWN
10,180,10,170,10,110,UP,EQUAL,70,60,28,False,True,True,True,1471,1470,False,False,LEFT,UP
160,70,160,80,160,420,DOWN,EQUAL,350,340,43,True,True,False,True,2404,2403,True,False,DOWN,DOWN
180,160,180,170,180,360,DOWN,EQUAL,200,190,53,True,True,False,True,2915,2914,True,False,DOWN,DOWN
420,90,420,100,340,300,DOWN,LEFT,290,280,5,True,True,False,True,126,125,False,False,DOWN,DOWN
390,170,390,160,370,230,EQUAL,EQUAL,80,90,50,False,True,True,False,2780,2779,True,True,UP,UP
380,280,380,270,380,200,UP,EQUAL,80,70,59,True,True,True,False,3189,3188,True,False,UP,UP
190,310,190,320,210,440,DOWN,RIGHT,150,140,44,True,True,False,True,2410,2409,True,False,DOWN,DOWN
210,0,220,0,420,20,DOWN,RIGHT,230,220,4,True,False,False,True,55,0,False,False,RIGHT,RIGHT
270,50,270,60,280,160,DOWN,RIGHT,120,110,32,True,True,False,True,1784,1783,True,False,DOWN,DOWN
130,120,120,120,30,440,DOWN,LEFT,420,410,12,False,True,True,True,471,470,False,False,LEFT,LEFT
140,190,150,190,460,440,DOWN,RIGHT,570,560,58,True,False,True,True,3171,3170,True,False,RIGHT,RIGHT
390,390,390,400,360,430,DOWN,LEFT,70,60,56,True,True,False,True,3076,3075,False,False,DOWN,DOWN
80,400,90,400,160,410,DOWN,RIGHT,90,80,54,True,False,True,True,2976,2975,True,True,RIGHT,RIGHT
370,120,370,130,370,230,DOWN,EQUAL,110,100,50,True,True,False,True,2713,2712,False,False,DOWN,DOWN
40,270,40,280,30,440,DOWN,LEFT,180,170,12,True,True,False,True,447,446,False,False,DOWN,DOWN
180,60,180,70,180,360,DOWN,EQUAL,300,290,53,True,True,False,True,2925,2924,True,True,DOWN,DOWN
230,140,240,140,260,150,DOWN,RIGHT,40,30,15,True,False,True,True,630,629,False,False,RIGHT,RIGHT
10,60,10,50,220,70,DOWN,RIGHT,220,230,29,True,True,True,False,1560,1559,False,False,UP,UP
30,390,30,380,290,50,UP,RIGHT,600,590,42,True,False,True,False,2382,2381,False,False,UP,UP
340,130,350,130,390,170,DOWN,RIGHT,90,80,49,True,False,True,True,2700,2699,False,False,RIGHT,RIGHT
50,110,50,100,400,20,UP,RIGHT,440,430,8,True,True,True,False,288,287,True,False,UP,UP
390,240,390,250,360,430,DOWN,LEFT,220,210,56,True,True,False,True,3091,3090,False,False,DOWN,DOWN
380,350,390,350,390,260,UP,RIGHT,100,90,38,True,False,True,True,2141,2140,True,False,RIGHT,RIGHT
260,160,270,160,280,160,EQUAL,RIGHT,20,10,32,True,False,True,False,1736,1735,False,False,RIGHT,RIGHT
410,430,420,430,40,240,UP,LEFT,560,570,57,True,False,True,True,3151,3150,False,False,RIGHT,RIGHT
370,0,380,0,420,20,DOWN,RIGHT,70,60,4,True,False,False,True,39,0,False,False,RIGHT,RIGHT
160,300,170,300,210,440,DOWN,RIGHT,190,180,44,True,False,True,True,2414,2413,True,False,RIGHT,RIGHT
60,70,60,80,60,180,DOWN,EQUAL,110,100,14,True,True,False,True,569,568,True,False,DOWN,DOWN
130,20,130,10,130,10,UP,EQUAL,10,0,3,True,True,True,False,-36,64,True,False,UP,UP
190,370,180,370,100,370,EQUAL,LEFT,90,80,9,False,True,True,True,281,280,True,False,LEFT,LEFT
110,350,110,340,100,50,UP,LEFT,310,300,52,True,True,True,False,2864,2863,True,False,UP,UP
340,160,340,150,170,100,UP,LEFT,230,220,6,True,True,True,False,182,181,True,False,UP,UP
280,160,290,160,20,330,EQUAL,EQUAL,430,440,33,True,False,True,True,1835,1834,False,False,RIGHT,RIGHT
270,450,260,450,310,120,UP,RIGHT,370,380,48,False,True,True,True,2666,2665,False,False,LEFT,LEFT
260,0,270,0,420,20,DOWN,RIGHT,180,170,4,True,False,False,True,50,0,False,False,RIGHT,RIGHT
380,90,380,80,440,80,UP,RIGHT,70,60,60,True,True,True,False,3271,3270,True,False,UP,UP
290,440,300,440,350,310,UP,RIGHT,190,180,23,True,False,True,True,1160,1159,False,False,RIGHT,RIGHT
280,90,270,90,170,100,DOWN,LEFT,120,110,6,False,True,True,True,169,168,False,False,LEFT,LEFT
180,370,180,380,160,410,DOWN,LEFT,60,50,54,True,True,False,True,2995,2994,True,False,DOWN,DOWN
410,330,420,330,440,370,DOWN,RIGHT,70,60,37,True,False,True,True,2085,2084,False,False,RIGHT,RIGHT
10,410,10,420,10,460,DOWN,EQUAL,50,40,25,True,True,False,True,1293,1292,True,False,DOWN,DOWN
290,100,290,90,290,50,UP,EQUAL,50,40,42,True,True,True,False,2327,2326,False,False,UP,UP
160,0,150,0,130,10,DOWN,LEFT,40,30,3,False,True,False,True,-17,0,False,False,LEFT,LEFT
170,60,180,60,50,250,DOWN,LEFT,310,320,7,True,True,True,False,240,239,True,False,UP,RIGHT
400,150,400,160,390,170,DOWN,LEFT,30,20,49,True,True,False,True,2692,2691,False,False,DOWN,DOWN
190,150,200,150,280,160,DOWN,RIGHT,100,90,32,True,False,True,True,1744,1743,True,True,RIGHT,RIGHT
200,440,210,440,210,440,EQUAL,RIGHT,10,0,44,True,False,True,True,2396,2496,False,False,RIGHT,RIGHT
120,90,120,100,100,10,UP,LEFT,100,110,10,True,True,False,True,319,318,True,False,DOWN,DOWN
250,210,240,210,40,400,DOWN,LEFT,400,390,39,False,True,True,True,2213,2212,False,False,LEFT,LEFT
450,80,450,90,120,80,EQUAL,LEFT,330,340,61,True,False,True,True,3364,3363,True,True,RIGHT,DOWN
210,330,200,330,20,330,EQUAL,LEFT,190,180,33,False,True,True,True,1803,1802,False,False,LEFT,LEFT
160,130,160,120,390,80,UP,RIGHT,280,270,55,True,True,True,False,3040,3039,False,False,UP,UP
310,450,300,450,280,450,EQUAL,LEFT,30,20,47,False,True,True,True,2569,2568,False,False,LEFT,LEFT
80,420,80,430,270,380,UP,RIGHT,230,240,35,True,True,False,True,1931,1930,False,False,DOWN,DOWN
390,310,380,310,340,300,UP,LEFT,60,50,5,False,True,True,True,101,100,True,False,LEFT,LEFT
390,110,390,120,360,430,DOWN,LEFT,350,340,56,True,True,False,True,3104,3103,False,False,DOWN,DOWN
220,210,210,210,40,400,DOWN,LEFT,370,360,39,False,True,True,True,2210,2209,False,False,LEFT,LEFT
150,300,160,300,290,50,UP,RIGHT,390,380,42,True,False,True,True,2361,2360,False,False,RIGHT,RIGHT
310,430,320,430,360,430,EQUAL,RIGHT,50,40,56,True,False,False,True,3060,3059,False,False,RIGHT,RIGHT
420,0,420,10,420,20,DOWN,EQUAL,20,10,4,True,False,False,True,34,0,False,False,RIGHT,DOWN
190,140,200,140,260,150,DOWN,RIGHT,80,70,15,True,False,True,True,634,633,False,False,RIGHT,RIGHT
190,50,200,50,390,80,DOWN,RIGHT,230,220,55,True,False,True,True,3029,3028,False,False,RIGHT,RIGHT
320,300,320,290,320,270,UP,EQUAL,30,20,26,True,True,True,False,1340,1339,True,False,UP,UP
420,300,420,310,340,300,EQUAL,LEFT,80,90,5,True,True,False,True,105,104,False,False,DOWN,DOWN
10,390,10,400,10,460,DOWN,EQUAL,70,60,25,True,True,False,True,1295,1294,True,False,DOWN,DOWN
380,380,380,370,380,200,UP,EQUAL,180,170,59,True,True,True,False,3199,3198,True,True,UP,UP
380,80,390,80,440,80,EQUAL,RIGHT,60,50,60,True,True,True,False,3270,3269,True,False,UP,RIGHT
330,430,320,430,390,260,UP,RIGHT,230,240,38,False,True,True,True,2162,2161,True,False,LEFT,LEFT
420,180,420,190,340,300,DOWN,LEFT,200,190,5,True,True,False,True,117,116,False,False,DOWN,DOWN
120,410,130,410,220,360,UP,RIGHT,150,140,40,True,False,True,True,2265,2264,True,False,RIGHT,RIGHT
20,330,10,330,80,410,EQUAL,EQUAL,140,150,34,False,True,True,True,1885,1884,False,False,LEFT,LEFT
160,280,160,270,390,80,UP,RIGHT,430,420,55,True,True,True,False,3055,3054,False,False,UP,UP
20,130,20,140,10,110,UP,LEFT,30,40,28,True,True,False,True,1477,1476,False,False,DOWN,DOWN
320,400,320,390,320,270,UP,EQUAL,130,120,26,True,True,True,False,1350,1349,True,False,UP,UP
430,230,440,230,460,190,UP,RIGHT,70,60,20,True,False,True,True,958,957,False,False,RIGHT,RIGHT
370,280,370,290,370,330,DOWN,EQUAL,50,40,51,True,True,False,True,2798,2797,False,False,DOWN,DOWN
400,210,400,220,390,170,UP,LEFT,50,60,49,True,True,False,True,2686,2685,False,False,DOWN,DOWN
270,230,270,220,40,210,UP,LEFT,250,240,45,True,True,True,False,2469,2468,False,False,UP,UP
420,270,420,280,340,300,DOWN,LEFT,110,100,5,True,True,False,True,108,107,False,False,DOWN,DOWN
140,150,140,160,160,420,DOWN,RIGHT,290,280,43,True,True,False,True,2394,2393,False,False,DOWN,DOWN
420,280,420,290,340,300,DOWN,LEFT,100,90,5,True,True,False,True,107,106,False,False,DOWN,DOWN
220,80,220,90,30,440,DOWN,LEFT,550,540,12,True,False,True,True,484,483,True,False,RIGHT,DOWN
20,220,30,220,80,410,DOWN,RIGHT,250,240,34,True,False,True,True,1872,1871,True,False,RIGHT,RIGHT
130,260,120,260,50,250,UP,LEFT,90,80,7,False,True,True,True,210,209,True,False,LEFT,LEFT
20,310,20,320,30,410,DOWN,RIGHT,110,100,41,True,True,False,True,2320,2319,True,False,DOWN,DOWN
110,0,120,0,100,10,DOWN,LEFT,20,30,10,True,False,False,True,329,0,True,False,RIGHT,RIGHT
70,50,70,40,100,10,UP,RIGHT,70,60,10,True,True,True,False,338,337,True,False,UP,UP
180,240,180,250,180,360,DOWN,EQUAL,120,110,53,True,True,False,True,2907,2906,True,False,DOWN,DOWN
170,50,180,50,130,10,UP,LEFT,80,90,3,True,False,True,True,-7,-8,False,False,RIGHT,RIGHT
340,140,340,130,170,100,UP,LEFT,210,200,6,True,True,True,False,180,179,True,False,UP,UP
90,440,100,440,130,70,UP,RIGHT,410,400,13,True,False,True,True,524,523,False,False,RIGHT,RIGHT
290,240,290,230,290,50,UP,EQUAL,190,180,42,True,True,True,False,2341,2340,False,False,UP,UP
20,300,20,310,30,410,DOWN,RIGHT,120,110,41,True,True,False,True,2321,2320,True,False,DOWN,DOWN
120,30,130,30,400,20,UP,RIGHT,290,280,8,True,False,True,True,273,272,True,False,RIGHT,RIGHT
260,40,250,40,120,50,DOWN,LEFT,150,140,27,False,True,True,True,1409,1408,True,False,LEFT,LEFT
450,240,460,240,120,80,UP,LEFT,490,500,61,True,True,False,True,3348,3347,True,False,DOWN,RIGHT
80,450,90,450,270,380,UP,RIGHT,260,250,35,True,True,False,True,1928,1927,False,False,DOWN,RIGHT
390,160,380,160,370,230,DOWN,LEFT,90,80,50,False,True,True,False,2779,2778,True,True,UP,LEFT
90,240,80,240,40,240,EQUAL,LEFT,50,40,57,False,True,True,True,3094,3093,False,False,LEFT,LEFT
340,190,340,200,370,230,DOWN,RIGHT,70,60,50,True,True,False,True,2771,2770,False,False,DOWN,DOWN
130,50,120,50,120,50,EQUAL,LEFT,10,0,27,False,True,True,True,1395,1495,False,False,LEFT,LEFT
320,290,320,280,310,120,UP,LEFT,180,170,48,True,True,True,False,2637,2636,False,False,UP,UP
390,240,390,230,40,400,DOWN,LEFT,510,520,39,True,True,True,False,2230,2229,False,False,UP,UP
70,210,60,210,40,210,EQUAL,LEFT,30,20,45,False,True,True,True,2447,2446,True,False,LEFT,LEFT
150,350,150,360,160,420,DOWN,RIGHT,80,70,43,True,True,False,True,2373,2372,False,False,DOWN,DOWN
160,70,160,60,390,80,DOWN,RIGHT,240,250,55,True,True,True,False,3034,3033,False,False,UP,UP
340,210,340,200,170,100,UP,LEFT,280,270,6,True,True,True,False,187,186,True,False,UP,UP
20,370,20,380,30,410,DOWN,RIGHT,50,40,41,True,True,False,True,2314,2313,True,False,DOWN,DOWN
270,370,270,360,300,330,UP,RIGHT,70,60,36,True,True,True,False,2002,2001,True,False,UP,UP
70,450,60,450,210,440,UP,RIGHT,150,160,44,False,True,True,True,2442,2441,False,False,LEFT,LEFT
280,300,290,300,290,50,UP,RIGHT,260,250,42,True,False,True,True,2348,2347,False,False,RIGHT,RIGHT
80,270,80,280,110,440,DOWN,RIGHT,200,190,22,True,True,False,True,1101,1100,False,False,DOWN,DOWN
310,360,300,360,100,50,UP,LEFT,520,510,52,False,True,True,True,2885,2884,False,False,LEFT,LEFT
430,190,440,190,460,440,DOWN,RIGHT,280,270,58,True,False,True,True,3142,3141,True,False,RIGHT,RIGHT
390,250,390,240,40,400,DOWN,LEFT,500,510,39,True,True,True,False,2231,2230,False,False,UP,UP
280,120,270,120,270,120,EQUAL,LEFT,10,0,30,True,True,False,True,1622,1722,False,False,DOWN,LEFT
200,470,210,470,320,270,UP,RIGHT,320,310,26,True,False,True,False,1369,0,True,False,RIGHT,RIGHT
390,180,390,170,390,170,UP,EQUAL,10,0,49,False,True,True,False,2680,2780,True,True,UP,UP
20,330,20,340,30,410,DOWN,RIGHT,90,80,41,True,True,False,True,2318,2317,True,False,DOWN,DOWN
350,50,360,50,390,80,DOWN,RIGHT,70,60,55,True,False,True,True,3013,3012,False,False,RIGHT,RIGHT
240,470,250,470,320,270,UP,RIGHT,280,270,26,True,False,True,False,1365,0,True,False,RIGHT,RIGHT
120,440,130,440,350,310,UP,RIGHT,360,350,23,True,False,True,True,1177,1176,False,False,RIGHT,RIGHT
150,170,140,170,280,160,UP,RIGHT,140,150,32,False,True,True,True,1756,1755,False,False,LEFT,LEFT
180,190,190,190,460,440,DOWN,RIGHT,530,520,58,True,False,True,True,3167,3166,True,False,RIGHT,RIGHT
400,430,410,430,40,240,UP,LEFT,550,560,57,True,False,True,True,3152,3151,False,False,RIGHT,RIGHT
30,220,40,220,80,410,DOWN,RIGHT,240,230,34,True,False,True,True,1871,1870,True,False,RIGHT,RIGHT
160,260,160,250,390,80,UP,RIGHT,410,400,55,True,True,True,False,3053,3052,False,False,UP,UP
200,90,190,90,170,100,DOWN,LEFT,40,30,6,False,True,True,True,161,160,False,False,LEFT,LEFT
150,370,140,370,100,370,EQUAL,LEFT,50,40,9,False,True,True,True,277,276,True,False,LEFT,LEFT
180,190,180,200,180,360,DOWN,EQUAL,170,160,53,True,True,False,True,2912,2911,True,False,DOWN,DOWN
240,230,230,230,40,240,DOWN,LEFT,210,200,57,False,True,True,True,3110,3109,True,False,LEFT,LEFT
400,20,410,20,100,370,EQUAL,EQUAL,650,660,9,True,False,True,True,341,340,False,False,RIGHT,RIGHT
330,90,320,90,170,100,DOWN,LEFT,170,160,6,False,True,True,True,174,173,False,False,LEFT,LEFT
100,400,110,400,160,410,DOWN,RIGHT,70,60,54,True,False,True,True,2974,2973,True,True,RIGHT,RIGHT
290,130,290,120,290,50,UP,EQUAL,80,70,42,True,True,True,False,2330,2329,False,False,UP,UP
320,280,320,270,320,270,UP,EQUAL,10,0,26,True,True,True,False,1338,1438,True,False,UP,UP
380,310,390,310,430,320,DOWN,RIGHT,60,50,46,True,False,True,True,2499,2498,True,False,RIGHT,RIGHT
370,430,380,430,40,240,UP,LEFT,520,530,57,True,False,False,True,3155,3154,False,False,RIGHT,RIGHT
320,370,320,360,310,120,UP,LEFT,260,250,48,True,True,True,False,2645,2644,False,False,UP,UP
460,140,460,130,460,20,UP,EQUAL,120,110,18,True,True,True,False,844,843,False,False,UP,UP
180,380,180,390,160,410,DOWN,LEFT,50,40,54,True,True,False,True,2994,2993,True,False,DOWN,DOWN
200,80,210,80,30,440,DOWN,LEFT,530,540,12,True,False,True,True,486,485,True,False,RIGHT,RIGHT
340,130,340,120,170,100,UP,LEFT,200,190,6,True,True,True,False,179,178,True,False,UP,UP
440,160,430,160,150,260,DOWN,LEFT,390,380,21,False,True,True,True,1047,1046,True,False,LEFT,LEFT
70,400,80,400,160,410,DOWN,RIGHT,100,90,54,True,True,True,False,2977,2976,True,True,UP,RIGHT
400,150,410,150,450,270,DOWN,RIGHT,170,160,16,True,False,True,True,713,712,False,False,RIGHT,RIGHT
290,370,290,360,390,260,UP,RIGHT,210,200,38,True,True,True,False,2152,2151,True,False,UP,UP
90,420,80,420,160,410,UP,RIGHT,80,90,54,False,True,True,True,2981,2980,True,False,LEFT,LEFT
460,40,460,30,460,20,UP,EQUAL,20,10,18,True,True,True,False,834,833,False,False,UP,UP
190,80,200,80,30,440,DOWN,LEFT,520,530,12,True,False,True,True,487,486,True,False,RIGHT,RIGHT
220,310,230,310,430,320,DOWN,RIGHT,220,210,46,True,False,True,True,2515,2514,True,False,RIGHT,RIGHT
10,330,10,320,80,410,DOWN,RIGHT,150,160,34,False,True,True,True,1884,1883,False,False,LEFT,UP
90,450,80,450,210,440,UP,RIGHT,130,140,44,False,True,True,True,2444,2443,False,False,LEFT,LEFT
10,240,10,230,80,410,DOWN,RIGHT,240,250,34,True,True,True,False,1875,1874,True,False,UP,UP
370,350,380,350,390,260,UP,RIGHT,110,100,38,True,False,True,True,2142,2141,True,False,RIGHT,RIGHT
340,230,340,240,370,230,EQUAL,RIGHT,30,40,50,True,True,False,True,2767,2766,False,False,DOWN,DOWN
410,230,400,230,40,240,DOWN,LEFT,380,370,57,False,True,True,True,3127,3126,True,False,LEFT,LEFT
50,450,50,440,210,440,UP,RIGHT,170,160,44,False,True,True,True,2440,2439,False,False,LEFT,UP
90,310,100,310,110,440,DOWN,RIGHT,150,140,22,True,False,True,True,1096,1095,False,False,RIGHT,RIGHT
290,330,280,330,20,330,EQUAL,LEFT,270,260,33,False,True,True,True,1811,1810,False,False,LEFT,LEFT
290,80,290,70,290,50,UP,EQUAL,30,20,42,True,True,True,False,2325,2324,False,False,UP,UP
340,260,340,250,170,100,UP,LEFT,330,320,6,True,True,True,False,192,191,True,False,UP,UP
120,450,130,450,270,380,UP,RIGHT,220,210,35,True,False,True,True,1924,1923,False,False,RIGHT,RIGHT
310,410,320,410,310,120,UP,EQUAL,290,300,48,True,False,True,True,2650,2649,True,True,RIGHT,RIGHT
320,260,310,260,150,260,EQUAL,LEFT,170,160,21,False,True,True,True,1025,1024,False,False,LEFT,LEFT
130,170,130,160,130,70,UP,EQUAL,100,90,13,True,True,True,False,493,492,False,False,UP,UP
190,170,180,170,280,160,UP,RIGHT,100,110,32,False,True,True,True,1760,1759,False,False,LEFT,LEFT
340,360,330,360,100,50,UP,LEFT,550,540,52,False,True,True,True,2888,2887,False,False,LEFT,LEFT
290,220,290,210,290,50,UP,EQUAL,170,160,42,True,True,True,False,2339,2338,False,False,UP,UP
420,290,420,300,340,300,DOWN,LEFT,90,80,5,True,True,False,True,106,105,False,False,DOWN,DOWN
100,220,110,220,260,150,UP,RIGHT,230,220,15,True,False,True,True,651,650,True,False,RIGHT,RIGHT
120,330,120,340,110,440,DOWN,LEFT,120,110,22,True,True,False,True,1091,1090,False,False,DOWN,DOWN
300,330,310,330,440,370,EQUAL,EQUAL,180,170,37,True,False,True,True,2096,2095,False,False,RIGHT,RIGHT
320,320,320,330,20,330,DOWN,LEFT,310,300,33,True,True,False,True,1815,1814,False,False,DOWN,DOWN
260,440,270,440,350,310,UP,RIGHT,220,210,23,True,False,True,True,1163,1162,False,False,RIGHT,RIGHT
280,410,290,410,310,120,UP,RIGHT,320,310,48,True,False,True,True,2653,2652,True,True,RIGHT,RIGHT
10,310,10,300,80,410,DOWN,RIGHT,170,180,34,True,True,True,False,1882,1881,True,False,UP,UP
370,450,360,450,280,450,EQUAL,LEFT,90,80,47,False,True,True,True,2575,2574,False,False,LEFT,LEFT
90,300,100,300,290,50,UP,RIGHT,450,440,42,True,False,True,True,2367,2366,False,False,RIGHT,RIGHT
40,250,40,260,40,400,DOWN,EQUAL,150,140,39,True,True,False,True,2188,2187,True,False,DOWN,DOWN
130,140,130,130,130,70,UP,EQUAL,70,60,13,True,True,True,False,490,489,False,False,UP,UP
180,110,180,120,180,360,DOWN,EQUAL,250,240,53,True,True,False,True,2920,2919,True,False,DOWN,DOWN
120,0,120,10,100,10,DOWN,LEFT,30,20,10,True,False,False,True,328,0,True,False,RIGHT,DOWN
280,370,270,370,100,370,EQUAL,LEFT,180,170,9,False,True,True,True,290,289,True,False,LEFT,LEFT
190,410,190,420,210,440,DOWN,RIGHT,50,40,44,True,True,False,True,2400,2399,True,False,DOWN,DOWN
390,310,390,300,390,260,UP,EQUAL,50,40,38,True,True,True,False,2136,2135,False,False,UP,UP
260,90,250,90,170,100,DOWN,LEFT,100,90,6,False,True,True,True,167,166,False,False,LEFT,LEFT
310,90,300,90,370,230,DOWN,RIGHT,200,210,50,False,True,True,True,2726,2725,True,False,LEFT,LEFT
70,170,70,160,100,10,UP,RIGHT,190,180,10,True,True,True,False,350,349,True,False,UP,UP
10,30,20,30,220,70,DOWN,RIGHT,250,240,29,True,True,True,False,1557,1556,False,False,UP,RIGHT
190,420,200,420,210,440,DOWN,RIGHT,40,30,44,True,False,True,True,2463,2462,False,False,RIGHT,RIGHT
130,100,130,90,130,70,UP,EQUAL,30,20,13,True,True,True,False,486,485,False,False,UP,UP
340,220,340,230,370,230,DOWN,RIGHT,40,30,50,True,True,False,True,2768,2767,False,False,DOWN,DOWN
330,440,340,440,350,310,UP,RIGHT,150,140,23,True,False,True,True,1156,1155,False,False,RIGHT,RIGHT
460,450,450,450,380,200,UP,LEFT,330,320,59,True,True,False,True,3214,3213,False,False,DOWN,LEFT
340,240,350,240,370,230,UP,RIGHT,40,30,50,True,True,False,True,2766,2765,False,False,DOWN,RIGHT
220,310,220,300,30,410,DOWN,LEFT,290,300,41,True,True,True,False,2346,2345,True,False,UP,UP
50,240,50,230,400,20,UP,RIGHT,570,560,8,True,True,True,False,301,300,True,False,UP,UP
170,140,180,140,260,150,DOWN,RIGHT,100,90,15,True,False,True,True,636,635,False,False,RIGHT,RIGHT
60,310,70,310,430,320,DOWN,RIGHT,380,370,46,True,False,True,True,2531,2530,True,False,RIGHT,RIGHT
60,450,50,450,210,440,UP,RIGHT,160,170,44,False,True,True,True,2441,2440,False,False,LEFT,LEFT
460,240,460,230,120,80,UP,LEFT,500,490,61,True,False,True,True,3347,3346,False,False,RIGHT,UP
420,150,430,150,450,270,DOWN,RIGHT,150,140,16,True,False,True,True,711,710,False,False,RIGHT,RIGHT
390,310,390,320,360,430,DOWN,LEFT,150,140,56,True,True,False,True,3084,3083,False,False,DOWN,DOWN
290,250,290,240,290,50,UP,EQUAL,200,190,42,True,True,True,False,2342,2341,False,False,UP,UP
290,30,280,30,160,420,DOWN,LEFT,520,510,43,True,True,True,False,2421,2420,False,False,UP,LEFT
320,170,320,160,120,50,UP,LEFT,320,310,27,True,True,True,False,1428,1427,True,False,UP,UP
70,410,80,410,220,360,UP,RIGHT,200,190,40,True,False,True,True,2270,2269,True,False,RIGHT,RIGHT
430,390,430,400,280,450,DOWN,LEFT,210,200,47,True,True,False,True,2587,2586,False,False,DOWN,DOWN
380,290,380,280,380,200,UP,EQUAL,90,80,59,True,True,True,False,3190,3189,True,True,UP,UP
180,300,190,300,290,50,UP,RIGHT,360,350,42,True,False,True,True,2358,2357,False,False,RIGHT,RIGHT
220,410,220,400,220,360,UP,EQUAL,50,40,40,True,False,True,True,2255,2254,True,False,RIGHT,UP
380,150,390,150,460,20,UP,RIGHT,210,200,18,True,False,True,True,853,852,True,False,RIGHT,RIGHT
100,320,110,320,80,410,DOWN,LEFT,110,120,34,True,False,True,True,1854,1853,False,False,RIGHT,RIGHT
120,420,130,420,30,410,UP,LEFT,100,110,41,True,False,True,True,2299,2298,True,False,RIGHT,RIGHT
80,300,80,310,110,440,DOWN,RIGHT,170,160,22,True,True,False,True,1098,1097,False,False,DOWN,DOWN
270,10,260,10,190,190,DOWN,LEFT,260,250,19,False,True,True,True,913,912,False,False,LEFT,LEFT
250,90,240,90,170,100,DOWN,LEFT,90,80,6,False,True,True,True,166,165,False,False,LEFT,LEFT
180,150,180,160,180,360,DOWN,EQUAL,210,200,53,True,True,False,True,2916,2915,True,False,DOWN,DOWN
90,260,80,260,110,440,DOWN,RIGHT,200,210,22,False,True,True,True,1103,1102,False,False,LEFT,LEFT
260,330,250,330,20,330,EQUAL,LEFT,240,230,33,False,True,True,True,1808,1807,False,False,LEFT,LEFT
80,280,70,280,30,410,DOWN,LEFT,180,170,41,False,True,True,True,2329,2328,True,False,LEFT,LEFT
440,430,430,430,390,260,UP,LEFT,220,210,38,True,True,False,True,2173,2172,False,True,DOWN,LEFT
10,320,10,310,80,410,DOWN,RIGHT,160,170,34,True,True,True,False,1883,1882,True,False,UP,UP
40,330,30,330,20,330,EQUAL,LEFT,20,10,33,False,True,True,True,1786,1785,False,False,LEFT,LEFT
260,300,270,300,290,50,UP,RIGHT,280,270,42,True,False,True,True,2350,2349,False,False,RIGHT,RIGHT
330,210,320,210,40,400,DOWN,LEFT,480,470,39,False,True,True,True,2221,2220,False,False,LEFT,LEFT
410,160,400,160,150,260,DOWN,LEFT,360,350,21,False,True,True,True,1044,1043,True,False,LEFT,LEFT
190,300,190,310,210,440,DOWN,RIGHT,160,150,44,True,False,True,True,2411,2410,True,True,RIGHT,DOWN
180,120,190,120,190,190,DOWN,RIGHT,80,70,19,True,True,False,True,893,892,True,False,DOWN,RIGHT
450,310,450,320,460,440,DOWN,RIGHT,140,130,58,True,True,False,True,3128,3127,True,False,DOWN,DOWN
120,230,120,220,130,70,UP,RIGHT,170,160,13,True,True,True,False,500,499,False,False,UP,UP
290,190,300,190,460,440,DOWN,RIGHT,420,410,58,True,False,True,True,3156,3155,True,False,RIGHT,RIGHT
80,0,90,0,100,10,DOWN,RIGHT,30,20,10,True,False,False,True,332,0,True,False,RIGHT,RIGHT
250,310,260,310,430,320,DOWN,RIGHT,190,180,46,True,False,True,True,2512,2511,True,False,RIGHT,RIGHT
390,130,400,130,390,170,DOWN,EQUAL,40,50,49,True,False,True,True,2695,2694,False,False,RIGHT,RIGHT
190,30,190,20,130,10,UP,LEFT,80,70,3,True,True,True,False,-11,-12,False,False,UP,UP
290,60,290,50,290,50,UP,EQUAL,10,0,42,True,True,True,False,2323,2423,False,False,UP,UP
230,0,240,0,420,20,DOWN,RIGHT,210,200,4,True,False,False,True,53,0,False,False,RIGHT,RIGHT
290,230,290,220,290,50,UP,EQUAL,180,170,42,True,True,True,False,2340,2339,False,False,UP,UP
180,70,190,70,220,70,EQUAL,RIGHT,40,30,29,True,False,True,True,1536,1535,False,False,RIGHT,RIGHT
440,420,440,430,390,260,UP,LEFT,210,220,38,True,True,False,True,2174,2173,False,False,DOWN,DOWN
440,370,440,380,390,260,EQUAL,EQUAL,160,170,38,True,True,False,True,2179,2178,False,False,DOWN,DOWN
20,470,30,470,320,270,UP,RIGHT,500,490,26,True,False,True,False,1387,0,True,False,RIGHT,RIGHT
220,350,220,340,30,410,DOWN,LEFT,250,260,41,True,True,True,False,2350,2349,True,False,UP,UP
150,50,140,50,120,50,EQUAL,LEFT,30,20,27,False,True,True,True,1397,1396,False,False,LEFT,LEFT
280,30,270,30,160,420,DOWN,LEFT,510,500,43,False,True,True,True,2420,2419,False,False,LEFT,LEFT
80,410,90,410,220,360,UP,RIGHT,190,180,40,True,False,True,True,2269,2268,True,False,RIGHT,RIGHT
50,30,60,30,400,20,UP,RIGHT,360,350,8,True,True,True,False,280,279,True,False,UP,RIGHT
110,210,100,210,40,210,EQUAL,LEFT,70,60,45,False,True,True,True,2451,2450,True,False,LEFT,LEFT
340,350,350,350,390,260,UP,RIGHT,140,130,38,True,False,True,True,2145,2144,True,True,RIGHT,RIGHT
80,430,80,440,270,380,UP,RIGHT,240,250,35,True,True,False,True,1930,1929,False,False,DOWN,DOWN
130,320,140,320,80,410,DOWN,LEFT,140,150,34,True,False,True,True,1851,1850,False,False,RIGHT,RIGHT
420,300,420,310,100,370,DOWN,LEFT,390,380,9,True,True,False,True,311,310,False,False,DOWN,DOWN
110,410,120,410,220,360,UP,RIGHT,160,150,40,True,False,True,True,2266,2265,True,False,RIGHT,RIGHT
350,90,340,90,370,230,DOWN,RIGHT,160,170,50,False,True,True,True,2730,2729,True,False,LEFT,LEFT
180,80,190,80,30,440,EQUAL,EQUAL,510,520,12,True,False,True,True,488,487,True,False,RIGHT,RIGHT
230,40,240,40,280,160,DOWN,RIGHT,170,160,32,True,False,True,True,1789,1788,True,False,RIGHT,RIGHT
380,100,380,90,440,80,UP,RIGHT,80,70,60,True,True,True,False,3272,3271,True,False,UP,UP
180,20,180,30,190,190,DOWN,RIGHT,180,170,19,True,True,False,True,903,902,True,False,DOWN,DOWN
190,360,180,360,100,50,UP,LEFT,400,390,52,False,True,True,True,2873,2872,False,False,LEFT,LEFT
340,310,340,300,340,300,UP,EQUAL,10,0,5,False,True,True,True,96,196,True,False,LEFT,UP
90,30,80,30,60,180,DOWN,LEFT,180,170,14,False,True,True,True,576,575,False,False,LEFT,LEFT
320,260,320,250,310,120,UP,LEFT,150,140,48,True,True,True,False,2634,2633,False,False,UP,UP
130,70,130,60,130,10,UP,EQUAL,60,50,3,True,False,True,False,-31,-32,True,False,UP,UP
430,90,420,90,370,230,DOWN,LEFT,200,190,50,False,True,True,True,2738,2737,True,False,LEFT,LEFT
180,120,180,130,180,360,DOWN,EQUAL,240,230,53,True,True,False,True,2919,2918,True,False,DOWN,DOWN
310,350,320,350,390,260,UP,RIGHT,170,160,38,True,False,True,True,2148,2147,True,True,RIGHT,RIGHT
300,40,290,40,120,50,DOWN,LEFT,190,180,27,False,True,True,True,1413,1412,True,False,LEFT,LEFT
440,330,440,340,440,370,DOWN,EQUAL,40,30,37,True,False,True,True,2082,2081,False,False,RIGHT,DOWN
150,260,140,260,50,250,UP,LEFT,110,100,7,False,True,True,True,212,211,True,False,LEFT,LEFT
30,330,30,320,290,50,UP,RIGHT,540,530,42,True,True,True,False,2376,2375,False,False,UP,UP
320,270,320,280,20,330,DOWN,LEFT,360,350,33,True,True,False,True,1820,1819,False,False,DOWN,DOWN
290,430,290,420,390,260,UP,RIGHT,270,260,38,False,True,True,True,2158,2157,True,False,LEFT,UP
400,0,410,0,420,20,DOWN,RIGHT,40,30,4,True,False,False,True,36,0,False,False,RIGHT,RIGHT
160,130,160,140,170,100,UP,RIGHT,40,50,6,True,True,False,True,153,152,False,False,DOWN,DOWN
120,260,110,260,110,440,DOWN,LEFT,190,180,22,False,True,True,True,1106,1105,False,False,LEFT,LEFT
100,370,90,370,100,10,EQUAL,EQUAL,360,370,10,False,True,True,True,373,372,True,False,LEFT,LEFT
390,310,400,310,430,320,DOWN,RIGHT,50,40,46,True,False,True,True,2498,2497,True,False,RIGHT,RIGHT
60,410,50,410,30,410,EQUAL,LEFT,30,20,41,False,True,True,False,2286,2285,True,True,LEFT,LEFT
60,230,60,240,80,410,DOWN,RIGHT,200,190,34,True,True,False,True,1867,1866,True,True,DOWN,DOWN
100,210,90,210,40,400,DOWN,LEFT,250,240,39,False,True,True,True,2198,2197,False,False,LEFT,LEFT
260,450,270,450,270,380,UP,RIGHT,80,70,35,True,False,True,True,1910,1909,False,False,RIGHT,RIGHT
290,40,280,40,120,50,DOWN,LEFT,180,170,27,False,True,True,True,1412,1411,True,False,LEFT,LEFT
450,220,450,230,120,80,UP,LEFT,470,480,61,True,True,False,True,3350,3349,True,False,DOWN,DOWN
260,30,250,30,160,420,DOWN,LEFT,490,480,43,False,True,True,True,2418,2417,False,False,LEFT,LEFT
420,450,410,450,380,200,UP,LEFT,290,280,59,False,True,True,True,3210,3209,False,False,LEFT,LEFT
190,90,180,90,170,100,DOWN,LEFT,30,20,6,False,True,True,True,160,159,False,False,LEFT,LEFT
300,90,300,80,310,120,DOWN,RIGHT,40,50,48,True,True,True,False,2615,2614,False,False,UP,UP
300,80,300,70,310,120,DOWN,RIGHT,50,60,48,True,True,True,False,2614,2613,False,False,UP,UP
310,50,310,60,310,120,DOWN,EQUAL,70,60,48,True,False,True,True,2610,2609,False,True,RIGHT,DOWN
240,140,240,150,260,150,DOWN,RIGHT,30,20,15,True,False,True,True,629,628,False,False,RIGHT,DOWN
370,160,360,160,370,230,DOWN,EQUAL,70,80,50,False,True,True,True,2777,2776,False,True,LEFT,LEFT
200,280,190,280,180,280,EQUAL,LEFT,20,10,24,False,True,True,True,1224,1223,True,False,LEFT,LEFT
180,80,180,90,190,190,DOWN,RIGHT,120,110,19,True,True,False,True,897,896,True,False,DOWN,DOWN
40,310,40,320,40,400,DOWN,EQUAL,90,80,39,True,True,False,True,2182,2181,True,False,DOWN,DOWN
420,10,410,10,190,190,DOWN,LEFT,410,400,19,False,True,True,True,928,927,False,False,LEFT,LEFT
220,400,220,390,220,360,UP,EQUAL,40,30,40,True,True,True,False,2254,2253,True,False,UP,UP
430,370,430,380,280,450,DOWN,LEFT,230,220,47,True,True,False,True,2589,2588,False,False,DOWN,DOWN
320,210,310,210,40,400,DOWN,LEFT,470,460,39,False,True,True,True,2220,2219,False,False,LEFT,LEFT
290,200,290,190,290,50,UP,EQUAL,150,140,42,True,True,True,False,2337,2336,False,False,UP,UP
280,300,280,290,280,210,UP,EQUAL,90,80,17,False,True,True,True,777,776,False,False,LEFT,UP
420,130,420,140,340,300,DOWN,LEFT,250,240,5,True,True,False,True,122,121,False,False,DOWN,DOWN
80,370,70,370,100,10,UP,RIGHT,380,390,10,False,True,True,True,371,370,True,False,LEFT,LEFT
450,380,450,390,460,440,DOWN,RIGHT,70,60,58,True,True,False,True,3121,3120,True,False,DOWN,DOWN
390,190,390,200,360,430,DOWN,LEFT,270,260,56,True,True,False,True,3096,3095,False,False,DOWN,DOWN
350,290,350,280,180,280,UP,LEFT,180,170,24,True,True,True,False,1240,1239,True,False,UP,UP
320,100,330,100,370,230,DOWN,RIGHT,180,170,50,True,False,False,True,2720,2719,True,True,RIGHT,RIGHT
320,230,320,220,310,120,UP,LEFT,120,110,48,True,True,True,False,2631,2630,False,False,UP,UP
240,280,230,280,180,280,EQUAL,LEFT,60,50,24,False,True,True,True,1228,1227,True,False,LEFT,LEFT
80,420,70,420,160,410,UP,RIGHT,90,100,54,False,True,True,True,2980,2979,True,False,LEFT,LEFT
80,280,70,280,10,460,DOWN,LEFT,250,240,25,False,True,True,True,1313,1312,True,False,LEFT,LEFT
110,230,100,230,40,240,DOWN,LEFT,80,70,57,False,True,True,True,3097,3096,True,False,LEFT,LEFT
10,130,10,120,10,110,UP,EQUAL,20,10,28,False,True,True,False,1466,1465,False,False,UP,UP
440,150,440,160,450,270,DOWN,RIGHT,130,120,16,True,False,True,True,709,708,False,False,RIGHT,DOWN
110,30,100,30,60,180,DOWN,LEFT,200,190,14,False,True,True,True,578,577,False,False,LEFT,LEFT
140,310,150,310,430,320,DOWN,RIGHT,300,290,46,True,False,True,True,2523,2522,True,False,RIGHT,RIGHT
140,360,130,360,100,50,UP,LEFT,350,340,52,False,True,True,True,2868,2867,False,False,LEFT,LEFT
180,470,190,470,320,270,UP,RIGHT,340,330,26,True,False,True,False,1371,0,True,False,RIGHT,RIGHT
420,430,410,430,390,260,UP,LEFT,200,190,38,False,True,True,True,2171,2170,True,False,LEFT,LEFT
160,190,170,190,460,440,DOWN,RIGHT,550,540,58,True,False,True,True,3169,3168,True,False,RIGHT,RIGHT
380,240,380,230,380,200,UP,EQUAL,40,30,59,True,True,True,False,3185,3184,True,False,UP,UP
420,330,430,330,440,370,DOWN,RIGHT,60,50,37,True,False,True,True,2084,2083,False,False,RIGHT,RIGHT
420,450,410,450,280,450,EQUAL,LEFT,140,130,47,False,True,True,True,2580,2579,False,False,LEFT,LEFT
110,50,110,40,100,10,UP,LEFT,50,40,10,True,True,True,False,312,311,True,False,UP,UP
120,10,120,20,100,10,EQUAL,LEFT,20,30,10,True,True,False,True,327,326,True,False,DOWN,DOWN
120,240,120,230,130,70,UP,RIGHT,180,170,13,True,True,True,False,501,500,False,False,UP,UP
180,110,180,120,190,190,DOWN,RIGHT,90,80,19,True,True,False,True,894,893,True,False,DOWN,DOWN
320,460,320,450,320,270,UP,EQUAL,190,180,26,True,True,True,False,1356,1355,True,False,UP,UP
390,160,380,160,150,260,DOWN,LEFT,340,330,21,False,True,True,True,1042,1041,True,False,LEFT,LEFT
270,210,260,210,40,400,DOWN,LEFT,420,410,39,False,True,True,True,2215,2214,False,False,LEFT,LEFT
30,310,30,300,290,50,UP,RIGHT,520,510,42,True,True,True,False,2374,2373,False,False,UP,UP
140,240,140,250,160,420,DOWN,RIGHT,200,190,43,True,True,False,True,2385,2384,False,False,DOWN,DOWN
10,110,10,100,220,70,EQUAL,EQUAL,250,240,29,False,True,True,False,1565,1564,False,False,UP,UP
150,260,140,260,110,440,EQUAL,EQUAL,220,210,22,False,True,True,True,1109,1108,False,False,LEFT,LEFT
310,40,300,40,120,50,DOWN,LEFT,200,190,27,False,True,True,True,1414,1413,True,False,LEFT,LEFT
160,300,170,300,290,50,UP,RIGHT,380,370,42,True,False,True,True,2360,2359,False,False,RIGHT,RIGHT
140,30,150,30,400,20,UP,RIGHT,270,260,8,True,False,True,True,271,270,True,False,RIGHT,RIGHT
150,120,140,120,30,440,DOWN,LEFT,440,430,12,False,True,True,True,473,472,False,False,LEFT,LEFT
140,420,130,420,160,410,UP,RIGHT,30,40,54,False,True,True,True,2986,2985,True,False,LEFT,LEFT
340,90,330,90,370,230,DOWN,RIGHT,170,180,50,False,True,True,True,2729,2728,True,False,LEFT,LEFT
250,470,260,470,320,270,UP,RIGHT,270,260,26,True,False,True,False,1364,0,True,False,RIGHT,RIGHT
280,110,290,110,280,160,DOWN,EQUAL,50,60,32,True,False,True,True,1777,1776,False,False,RIGHT,RIGHT
420,80,430,80,440,80,EQUAL,RIGHT,20,10,60,True,False,True,True,3266,3265,True,False,RIGHT,RIGHT
140,200,140,190,260,150,UP,RIGHT,170,160,15,True,True,True,False,645,644,True,False,UP,UP
450,190,450,180,370,230,DOWN,LEFT,120,130,50,True,True,True,False,2750,2749,True,False,UP,UP
250,230,260,230,460,190,UP,RIGHT,250,240,20,True,False,True,True,976,975,False,False,RIGHT,RIGHT
120,420,110,420,160,410,UP,RIGHT,50,60,54,False,True,True,True,2984,2983,True,False,LEFT,LEFT
460,180,460,170,150,260,DOWN,LEFT,390,400,21,True,True,True,False,1051,1050,False,False,UP,UP
150,40,160,40,280,160,DOWN,RIGHT,250,240,32,True,False,True,True,1797,1796,True,False,RIGHT,RIGHT
90,390,80,390,80,410,DOWN,LEFT,30,20,34,False,True,True,True,1834,1833,False,False,LEFT,LEFT
150,470,160,470,320,270,UP,RIGHT,370,360,26,True,False,True,False,1374,0,True,False,RIGHT,RIGHT
140,260,130,260,50,250,UP,LEFT,100,90,7,False,True,True,True,211,210,True,False,LEFT,LEFT
90,210,80,210,40,210,EQUAL,LEFT,50,40,45,False,True,True,True,2449,2448,True,False,LEFT,LEFT
230,210,220,210,40,400,DOWN,LEFT,380,370,39,False,True,True,True,2211,2210,False,False,LEFT,LEFT
140,440,150,440,350,310,UP,RIGHT,340,330,23,True,False,True,True,1175,1174,False,False,RIGHT,RIGHT
160,140,160,150,170,100,UP,RIGHT,50,60,6,True,True,False,True,152,151,False,False,DOWN,DOWN
180,180,180,190,180,360,DOWN,EQUAL,180,170,53,True,True,False,True,2913,2912,True,False,DOWN,DOWN
70,30,70,40,180,80,DOWN,RIGHT,160,150,11,True,True,False,True,403,402,False,False,DOWN,DOWN
270,450,270,440,270,380,UP,EQUAL,70,60,35,True,False,True,True,1909,1908,False,False,RIGHT,UP
10,300,10,290,80,410,DOWN,RIGHT,180,190,34,True,True,True,False,1881,1880,True,False,UP,UP
150,300,160,300,210,440,DOWN,RIGHT,200,190,44,True,False,True,True,2415,2414,True,False,RIGHT,RIGHT
140,120,130,120,120,70,UP,LEFT,70,60,31,False,True,True,True,1709,1708,False,False,LEFT,LEFT
410,0,420,0,420,20,DOWN,RIGHT,30,20,4,True,False,False,True,35,0,False,False,RIGHT,RIGHT
180,280,180,290,180,360,DOWN,EQUAL,80,70,53,True,True,False,True,2903,2902,True,False,DOWN,DOWN
150,70,160,70,220,70,EQUAL,RIGHT,70,60,29,True,False,True,True,1539,1538,False,False,RIGHT,RIGHT
90,220,100,220,260,150,UP,RIGHT,240,230,15,True,False,True,True,652,651,True,False,RIGHT,RIGHT
420,110,420,120,340,300,DOWN,LEFT,270,260,5,True,True,False,True,124,123,False,False,DOWN,DOWN
160,280,150,280,10,460,DOWN,LEFT,330,320,25,False,True,True,True,1321,1320,True,False,LEFT,LEFT
420,120,420,130,100,370,DOWN,LEFT,570,560,9,True,True,False,True,329,328,False,False,DOWN,DOWN
140,190,140,200,160,420,DOWN,RIGHT,250,240,43,True,True,False,True,2390,2389,False,False,DOWN,DOWN
290,150,290,160,280,160,DOWN,LEFT,20,10,32,True,True,False,True,1772,1771,False,False,DOWN,DOWN
90,370,80,370,100,10,UP,RIGHT,370,380,10,False,True,True,True,372,371,True,False,LEFT,LEFT
180,300,180,310,180,360,DOWN,EQUAL,60,50,53,True,True,False,True,2901,2900,True,False,DOWN,DOWN
400,430,390,430,390,260,UP,LEFT,180,170,38,False,True,True,True,2169,2168,True,False,LEFT,LEFT
210,120,200,120,120,70,UP,LEFT,140,130,31,False,True,True,True,1716,1715,False,False,LEFT,LEFT
40,380,40,390,40,400,DOWN,EQUAL,20,10,39,True,True,False,True,2175,2174,True,False,DOWN,DOWN
320,440,330,440,350,310,UP,RIGHT,160,150,23,True,False,True,True,1157,1156,False,False,RIGHT,RIGHT
20,180,10,180,10,110,UP,LEFT,80,70,28,True,True,False,True,1472,1471,False,False,DOWN,LEFT
380,270,380,260,380,200,UP,EQUAL,70,60,59,True,True,True,False,3188,3187,True,False,UP,UP
420,200,420,210,340,300,DOWN,LEFT,180,170,5,True,True,False,True,115,114,False,False,DOWN,DOWN
250,450,260,450,270,380,UP,RIGHT,90,80,35,True,False,True,True,1911,1910,False,False,RIGHT,RIGHT
130,230,120,230,40,240,DOWN,LEFT,100,90,57,False,True,True,True,3099,3098,True,False,LEFT,LEFT
310,440,320,440,350,310,UP,RIGHT,170,160,23,True,False,True,True,1158,1157,False,False,RIGHT,RIGHT
160,50,170,50,180,360,DOWN,RIGHT,330,320,53,True,False,True,True,2928,2927,False,False,RIGHT,RIGHT
20,160,20,170,10,110,UP,LEFT,60,70,28,True,True,False,True,1474,1473,False,False,DOWN,DOWN
100,410,100,400,130,70,UP,RIGHT,370,360,13,True,True,True,False,520,519,True,False,UP,UP
290,70,290,60,290,50,UP,EQUAL,20,10,42,True,True,True,False,2324,2323,False,False,UP,UP
70,70,80,70,220,70,EQUAL,RIGHT,150,140,29,True,False,True,True,1547,1546,False,False,RIGHT,RIGHT
210,150,220,150,280,160,DOWN,RIGHT,80,70,32,True,False,True,True,1742,1741,True,True,RIGHT,RIGHT
220,450,210,450,210,440,UP,LEFT,20,10,44,True,True,False,True,2457,2456,False,False,DOWN,LEFT
80,210,70,210,40,400,DOWN,LEFT,230,220,39,False,True,True,True,2196,2195,False,False,LEFT,LEFT
40,420,50,420,30,410,UP,LEFT,20,30,41,True,False,True,True,2307,2306,True,False,RIGHT,RIGHT
390,230,390,240,360,430,DOWN,LEFT,230,220,56,True,True,False,True,3092,3091,False,False,DOWN,DOWN
420,80,420,90,340,300,DOWN,LEFT,300,290,5,True,True,False,True,127,126,False,False,DOWN,DOWN
420,350,420,360,100,370,DOWN,LEFT,340,330,9,True,True,False,True,306,305,False,False,DOWN,DOWN
320,310,320,300,310,120,UP,LEFT,200,190,48,True,True,True,False,2639,2638,False,False,UP,UP
140,250,140,260,160,420,DOWN,RIGHT,190,180,43,True,True,False,True,2384,2383,False,False,DOWN,DOWN
100,330,100,320,130,70,UP,RIGHT,290,280,13,True,True,True,False,512,511,True,False,UP,UP
80,220,90,220,260,150,UP,RIGHT,250,240,15,True,False,True,True,653,652,True,False,RIGHT,RIGHT
390,450,380,450,380,200,UP,LEFT,260,250,59,False,True,True,True,3207,3206,False,False,LEFT,LEFT
190,400,190,410,210,440,DOWN,RIGHT,60,50,44,True,True,False,True,2401,2400,True,False,DOWN,DOWN
130,180,130,170,130,70,UP,EQUAL,110,100,13,True,True,True,False,494,493,False,False,UP,UP
200,100,200,110,50,250,DOWN,LEFT,300,290,7,True,True,False,True,233,232,False,False,DOWN,DOWN
200,120,190,120,120,70,UP,LEFT,130,120,31,False,True,True,True,1715,1714,False,False,LEFT,LEFT
270,330,260,330,20,330,EQUAL,LEFT,250,240,33,False,True,True,True,1809,1808,False,False,LEFT,LEFT
320,240,320,230,310,120,UP,LEFT,130,120,48,True,True,True,False,2632,2631,False,False,UP,UP
390,160,390,170,360,430,DOWN,LEFT,300,290,56,True,True,False,True,3099,3098,False,False,DOWN,DOWN
290,110,290,120,280,160,DOWN,LEFT,60,50,32,True,False,True,True,1776,1775,False,False,RIGHT,DOWN
320,350,330,350,390,260,UP,RIGHT,160,150,38,True,False,True,True,2147,2146,True,True,RIGHT,RIGHT
310,420,300,420,360,430,DOWN,RIGHT,60,70,56,False,True,True,True,3065,3064,True,False,LEFT,LEFT
180,450,170,450,210,440,UP,RIGHT,40,50,44,False,True,True,True,2453,2452,False,False,LEFT,LEFT
200,190,210,190,460,440,DOWN,RIGHT,510,500,58,True,False,True,True,3165,3164,True,False,RIGHT,RIGHT
270,110,280,110,280,160,DOWN,RIGHT,60,50,32,True,True,False,True,1778,1777,True,False,DOWN,RIGHT
230,450,230,440,310,120,UP,RIGHT,410,400,48,False,True,True,True,2662,2661,False,False,LEFT,UP
270,330,270,320,40,210,UP,LEFT,350,340,45,True,True,True,False,2479,2478,False,False,UP,UP
250,30,240,30,160,420,DOWN,LEFT,480,470,43,False,True,True,True,2417,2416,False,False,LEFT,LEFT
320,240,320,230,120,50,UP,LEFT,390,380,27,True,True,True,False,1435,1434,True,False,UP,UP
60,180,60,190,260,150,EQUAL,EQUAL,230,240,15,True,True,False,True,659,658,True,False,DOWN,DOWN
230,330,220,330,20,330,EQUAL,LEFT,210,200,33,False,True,True,True,1805,1804,False,False,LEFT,LEFT
190,150,190,160,190,190,DOWN,EQUAL,40,30,19,True,True,False,True,889,888,False,False,DOWN,DOWN
210,210,200,210,40,210,EQUAL,LEFT,170,160,45,False,True,True,True,2461,2460,True,False,LEFT,LEFT
160,320,160,330,80,410,DOWN,LEFT,170,160,34,True,False,True,True,1848,1847,False,False,RIGHT,DOWN
120,150,130,150,280,160,DOWN,RIGHT,170,160,32,True,True,True,False,1751,1750,True,True,UP,RIGHT
370,100,370,110,370,230,DOWN,EQUAL,130,120,50,True,False,False,True,2715,2714,True,True,RIGHT,DOWN
200,360,190,360,100,50,UP,LEFT,410,400,52,False,True,True,True,2874,2873,False,False,LEFT,LEFT
420,230,410,230,40,240,DOWN,LEFT,390,380,57,False,True,True,True,3128,3127,True,False,LEFT,LEFT
210,280,200,280,30,410,DOWN,LEFT,310,300,41,False,True,True,True,2342,2341,True,False,LEFT,LEFT
450,290,450,300,460,440,DOWN,RIGHT,160,150,58,True,True,False,True,3130,3129,True,False,DOWN,DOWN
50,410,40,410,30,410,EQUAL,LEFT,20,10,41,False,True,True,False,2285,2284,True,True,LEFT,LEFT
150,380,150,390,160,420,DOWN,RIGHT,50,40,43,True,True,False,True,2370,2369,False,False,DOWN,DOWN
100,60,100,50,100,50,UP,EQUAL,10,0,52,True,True,True,False,2834,2934,False,False,UP,UP
30,280,30,290,430,320,DOWN,RIGHT,440,430,46,True,True,False,True,2537,2536,True,False,DOWN,DOWN
430,240,430,230,40,240,EQUAL,LEFT,390,400,57,True,True,True,False,3130,3129,True,False,UP,UP
270,40,270,50,280,160,DOWN,RIGHT,130,120,32,True,False,True,True,1785,1784,True,False,RIGHT,DOWN
180,140,180,150,180,360,DOWN,EQUAL,220,210,53,True,True,False,True,2917,2916,True,False,DOWN,DOWN
40,240,30,240,460,440,EQUAL,EQUAL,620,630,58,False,True,True,True,3190,3189,False,False,LEFT,LEFT
300,360,290,360,100,50,UP,LEFT,510,500,52,False,True,True,True,2884,2883,False,False,LEFT,LEFT
440,360,440,370,440,370,DOWN,EQUAL,10,0,37,True,True,False,True,2079,2179,False,False,DOWN,DOWN
180,280,170,280,10,460,EQUAL,EQUAL,350,340,25,False,True,True,True,1323,1322,True,False,LEFT,LEFT
210,450,220,450,270,380,UP,RIGHT,130,120,35,True,False,True,True,1915,1914,False,False,RIGHT,RIGHT
360,310,370,310,430,320,DOWN,RIGHT,80,70,46,True,False,True,True,2501,2500,True,False,RIGHT,RIGHT
70,100,70,90,100,10,UP,RIGHT,120,110,10,True,True,True,False,343,342,True,False,UP,UP
380,150,390,150,450,270,DOWN,RIGHT,190,180,16,True,False,True,True,715,714,False,False,RIGHT,RIGHT
10,120,10,110,10,110,UP,EQUAL,10,0,28,False,True,True,False,1465,1565,False,False,UP,UP
310,100,320,100,370,230,DOWN,RIGHT,190,180,50,True,False,False,True,2721,2720,True,True,RIGHT,RIGHT
170,120,170,110,170,100,UP,EQUAL,20,10,6,True,True,True,False,145,144,True,False,UP,UP
80,280,80,290,110,440,DOWN,RIGHT,190,180,22,True,True,False,True,1100,1099,False,False,DOWN,DOWN
160,370,160,360,390,80,UP,RIGHT,520,510,55,True,True,True,False,3064,3063,False,False,UP,UP
400,160,400,170,390,170,DOWN,LEFT,20,10,49,True,True,False,True,2691,2690,False,False,DOWN,DOWN
190,10,190,0,130,10,EQUAL,LEFT,60,70,3,True,True,True,False,-13,-14,False,False,UP,UP
120,80,130,80,180,80,EQUAL,RIGHT,60,50,11,True,False,True,True,393,392,True,False,RIGHT,RIGHT
320,310,320,300,320,270,UP,EQUAL,40,30,26,True,True,True,False,1341,1340,True,False,UP,UP
130,50,130,40,60,180,DOWN,LEFT,200,210,14,True,True,True,False,582,581,False,False,UP,UP
170,440,180,440,350,310,UP,RIGHT,310,300,23,True,False,True,True,1172,1171,False,False,RIGHT,RIGHT
340,280,340,270,170,100,UP,LEFT,350,340,6,True,True,True,False,194,193,True,False,UP,UP
420,190,420,200,100,370,DOWN,LEFT,500,490,9,True,True,False,True,322,321,False,False,DOWN,DOWN
160,270,160,260,390,80,UP,RIGHT,420,410,55,True,True,True,False,3054,3053,False,False,UP,UP
230,50,240,50,390,80,DOWN,RIGHT,190,180,55,True,False,True,True,3025,3024,False,False,RIGHT,RIGHT
230,210,220,210,40,210,EQUAL,LEFT,190,180,45,False,True,True,True,2463,2462,True,False,LEFT,LEFT
120,50,130,50,180,360,DOWN,RIGHT,370,360,53,True,False,True,True,2932,2931,False,False,RIGHT,RIGHT
370,200,370,210,370,230,DOWN,EQUAL,30,20,50,True,True,False,True,2705,2704,False,False,DOWN,DOWN
170,470,180,470,320,270,UP,RIGHT,350,340,26,True,False,True,False,1372,0,True,False,RIGHT,RIGHT
390,430,400,430,40,240,UP,LEFT,540,550,57,True,False,False,True,3153,3152,False,False,RIGHT,RIGHT
360,10,350,10,190,190,DOWN,LEFT,350,340,19,False,True,True,True,922,921,False,False,LEFT,LEFT
10,400,10,410,10,460,DOWN,EQUAL,60,50,25,True,True,False,True,1294,1293,True,False,DOWN,DOWN
320,190,320,200,20,330,DOWN,LEFT,440,430,33,True,True,False,True,1828,1827,False,False,DOWN,DOWN
100,320,100,310,130,70,UP,RIGHT,280,270,13,True,True,True,False,511,510,True,False,UP,UP
250,370,240,370,100,370,EQUAL,LEFT,150,140,9,False,True,True,True,287,286,True,False,LEFT,LEFT
100,10,90,10,180,80,EQUAL,EQUAL,150,160,11,False,True,True,True,408,407,False,False,LEFT,LEFT
430,420,430,430,280,450,DOWN,LEFT,180,170,47,True,True,False,True,2584,2583,False,False,DOWN,DOWN
80,400,80,410,80,410,DOWN,EQUAL,10,0,34,True,True,False,True,1832,1932,False,False,DOWN,DOWN
190,230,200,230,460,190,UP,RIGHT,310,300,20,True,True,False,True,982,981,False,False,DOWN,RIGHT
270,320,270,310,40,210,UP,LEFT,340,330,45,True,True,True,False,2478,2477,False,False,UP,UP
70,290,70,280,100,10,UP,RIGHT,310,300,10,True,True,True,False,362,361,True,False,UP,UP
50,220,60,220,80,410,DOWN,RIGHT,220,210,34,True,False,True,True,1869,1868,True,False,RIGHT,RIGHT
10,450,10,460,10,460,DOWN,EQUAL,10,0,25,True,True,False,True,1289,1389,True,False,DOWN,DOWN
330,100,340,100,370,230,DOWN,RIGHT,170,160,50,True,False,False,True,2719,2718,True,True,RIGHT,RIGHT
270,120,260,120,120,70,EQUAL,EQUAL,200,190,31,False,True,True,True,1722,1721,False,False,LEFT,LEFT
300,410,310,410,310,120,UP,RIGHT,300,290,48,True,False,True,True,2651,2650,True,True,RIGHT,RIGHT
120,10,120,20,130,10,EQUAL,RIGHT,10,20,3,True,True,False,True,-22,-23,True,False,DOWN,DOWN
420,370,410,370,100,370,EQUAL,LEFT,320,310,9,True,True,False,True,304,303,False,False,DOWN,LEFT
180,70,180,80,180,360,DOWN,EQUAL,290,280,53,True,True,False,True,2924,2923,True,True,DOWN,DOWN
100,410,100,420,110,440,DOWN,RIGHT,40,30,22,True,True,False,True,1081,1080,False,False,DOWN,DOWN
150,50,160,50,180,360,DOWN,RIGHT,340,330,53,True,False,True,True,2929,2928,False,False,RIGHT,RIGHT
450,130,450,140,120,80,UP,LEFT,380,390,61,True,True,False,True,3359,3358,True,True,DOWN,DOWN
350,450,340,450,280,450,EQUAL,LEFT,70,60,47,False,True,True,True,2573,2572,False,False,LEFT,LEFT
210,310,220,310,430,320,DOWN,RIGHT,230,220,46,True,False,True,True,2516,2515,True,False,RIGHT,RIGHT
100,150,100,140,100,50,UP,EQUAL,100,90,52,True,True,True,False,2843,2842,False,False,UP,UP
190,0,200,0,420,20,DOWN,RIGHT,250,240,4,True,False,False,True,57,0,False,False,RIGHT,RIGHT
110,20,110,10,100,10,UP,LEFT,20,10,10,True,True,True,False,309,308,True,False,UP,UP
30,390,30,400,30,440,DOWN,EQUAL,50,40,12,True,True,False,True,434,433,False,False,DOWN,DOWN
110,360,100,360,110,440,DOWN,EQUAL,80,90,22,False,True,True,True,1087,1086,False,False,LEFT,LEFT
290,90,280,90,170,100,DOWN,LEFT,130,120,6,False,True,True,True,170,169,False,False,LEFT,LEFT
160,90,160,100,170,100,DOWN,RIGHT,20,10,6,False,True,True,True,157,156,False,False,LEFT,DOWN
180,150,190,150,280,160,DOWN,RIGHT,110,100,32,True,False,True,True,1745,1744,True,True,RIGHT,RIGHT
450,280,450,290,460,440,DOWN,RIGHT,170,160,58,True,True,False,True,3131,3130,True,False,DOWN,DOWN
130,470,140,470,320,270,UP,RIGHT,390,380,26,True,False,True,False,1376,0,True,False,RIGHT,RIGHT
200,210,200,220,50,250,DOWN,LEFT,190,180,7,True,True,False,True,222,221,False,False,DOWN,DOWN
60,470,70,470,320,270,UP,RIGHT,460,450,26,True,False,True,False,1383,0,True,False,RIGHT,RIGHT
150,280,140,280,10,460,DOWN,LEFT,320,310,25,False,True,True,True,1320,1319,True,False,LEFT,LEFT
80,450,70,450,210,440,UP,RIGHT,140,150,44,False,True,True,True,2443,2442,False,False,LEFT,LEFT
270,70,270,80,280,160,DOWN,RIGHT,100,90,32,True,True,False,True,1782,1781,True,False,DOWN,DOWN
450,260,450,270,450,270,DOWN,EQUAL,10,0,16,True,True,False,True,697,797,False,False,DOWN,DOWN
240,90,230,90,170,100,DOWN,LEFT,80,70,6,False,True,True,True,165,164,False,False,LEFT,LEFT
10,330,10,340,10,460,DOWN,EQUAL,130,120,25,True,True,False,True,1301,1300,True,False,DOWN,DOWN
350,310,360,310,430,320,DOWN,RIGHT,90,80,46,True,False,True,True,2502,2501,True,False,RIGHT,RIGHT
300,230,290,230,40,240,DOWN,LEFT,270,260,57,False,True,True,True,3116,3115,True,False,LEFT,LEFT
130,70,130,60,60,180,EQUAL,EQUAL,180,190,14,True,True,True,False,584,583,False,False,UP,UP
280,50,290,50,390,80,DOWN,RIGHT,140,130,55,True,False,True,True,3020,3019,False,False,RIGHT,RIGHT
130,0,140,0,420,20,DOWN,RIGHT,310,300,4,True,True,False,False,63,0,True,False,UP,RIGHT
160,470,170,470,320,270,UP,RIGHT,360,350,26,True,False,True,False,1373,0,True,False,RIGHT,RIGHT
460,420,460,430,460,440,DOWN,EQUAL,20,10,58,True,False,True,True,3116,3115,False,False,RIGHT,DOWN
420,40,420,50,340,300,DOWN,LEFT,340,330,5,True,True,False,True,131,130,False,False,DOWN,DOWN
10,260,10,250,80,410,DOWN,RIGHT,220,230,34,True,True,True,False,1877,1876,True,False,UP,UP
390,20,400,20,400,20,EQUAL,RIGHT,10,0,8,True,False,True,True,241,341,False,False,RIGHT,RIGHT
390,350,390,340,390,260,UP,EQUAL,90,80,38,True,False,True,True,2140,2139,True,False,RIGHT,UP
150,130,140,130,160,420,DOWN,RIGHT,300,310,43,False,True,True,True,2397,2396,False,False,LEFT,LEFT
320,360,320,350,320,270,UP,EQUAL,90,80,26,True,True,True,False,1346,1345,True,False,UP,UP
60,120,50,120,30,440,DOWN,LEFT,350,340,12,False,True,True,True,464,463,False,False,LEFT,LEFT
240,150,250,150,260,150,EQUAL,RIGHT,20,10,15,True,True,False,True,628,627,False,False,DOWN,RIGHT
450,230,450,240,460,440,DOWN,RIGHT,220,210,58,True,True,False,True,3136,3135,True,False,DOWN,DOWN
280,220,280,210,280,210,UP,EQUAL,10,0,17,True,True,True,False,769,869,True,False,UP,UP
330,330,340,330,440,370,DOWN,RIGHT,150,140,37,True,False,True,True,2093,2092,False,False,RIGHT,RIGHT
340,200,340,210,370,230,DOWN,RIGHT,60,50,50,True,True,False,True,2770,2769,False,False,DOWN,DOWN
110,240,110,230,100,50,UP,LEFT,200,190,52,True,True,True,False,2853,2852,True,False,UP,UP
170,50,180,50,390,80,DOWN,RIGHT,250,240,55,True,False,True,True,3031,3030,False,False,RIGHT,RIGHT
240,40,230,40,120,50,DOWN,LEFT,130,120,27,False,True,True,True,1407,1406,True,False,LEFT,LEFT
460,60,460,50,460,20,UP,EQUAL,40,30,18,True,True,True,False,836,835,False,False,UP,UP
140,130,140,140,160,420,DOWN,RIGHT,310,300,43,False,True,True,True,2396,2395,False,False,LEFT,DOWN
190,40,180,40,120,50,DOWN,LEFT,80,70,27,False,True,True,True,1402,1401,True,False,LEFT,LEFT
350,380,350,370,350,310,UP,EQUAL,70,60,23,True,True,True,False,1148,1147,True,False,UP,UP
270,40,260,40,120,50,DOWN,LEFT,160,150,27,False,True,True,True,1410,1409,True,False,LEFT,LEFT
60,30,60,40,60,180,DOWN,EQUAL,150,140,14,False,True,True,True,573,572,False,False,LEFT,DOWN
270,170,260,170,280,160,UP,RIGHT,20,30,32,False,True,True,True,1768,1767,False,False,LEFT,LEFT
110,40,110,30,100,10,UP,LEFT,40,30,10,True,True,True,False,311,310,True,False,UP,UP
300,420,290,420,360,430,DOWN,RIGHT,70,80,56,False,True,True,True,3064,3063,True,False,LEFT,LEFT
50,440,60,440,130,70,UP,RIGHT,450,440,13,True,False,True,True,528,527,False,False,RIGHT,RIGHT
210,10,220,10,400,20,DOWN,RIGHT,200,190,8,True,False,True,True,262,261,False,False,RIGHT,RIGHT
