@relation 'snake_game-weka.filters.unsupervised.instance.Randomize-S42-weka.filters.unsupervised.instance.RemovePercentage-P20.0-weka.filters.unsupervised.attribute.Remove-R3-4,10,16-17-weka.filters.unsupervised.attribute.Remove-R1-2,7-8,13-14'

@attribute food_pos_x numeric
@attribute food_pos_y numeric
@attribute food_side_y {UP,DOWN,EQUAL}
@attribute food_side_x {RIGHT,LEFT,EQUAL}
@attribute right_safe {True,False}
@attribute left_safe {True,False}
@attribute up_safe {True,False}
@attribute down_safe {True,False}
@attribute previous_direction {UP,DOWN,LEFT,RIGHT}
@attribute direction {UP,DOWN,LEFT,RIGHT}

@data
120,50,UP,LEFT,True,True,True,False,UP,UP
390,80,UP,RIGHT,True,True,True,False,UP,UP
270,380,UP,EQUAL,True,True,True,False,UP,UP
310,120,UP,RIGHT,True,False,True,True,RIGHT,RIGHT
400,20,UP,RIGHT,True,True,True,False,UP,UP
130,70,UP,RIGHT,True,True,True,False,UP,UP
450,270,DOWN,RIGHT,True,True,False,True,DOWN,DOWN
100,50,UP,LEFT,False,True,True,True,LEFT,LEFT
380,200,UP,EQUAL,True,True,True,False,UP,UP
180,80,EQUAL,RIGHT,True,False,True,True,RIGHT,RIGHT
280,160,DOWN,RIGHT,True,True,True,False,UP,UP
30,410,DOWN,LEFT,True,True,True,False,UP,UP
400,20,UP,RIGHT,True,True,True,False,UP,UP
390,170,EQUAL,LEFT,True,True,False,True,DOWN,DOWN
400,20,UP,RIGHT,True,True,True,False,UP,UP
210,440,DOWN,RIGHT,True,True,True,False,UP,UP
40,400,DOWN,LEFT,False,True,True,True,LEFT,LEFT
180,80,DOWN,RIGHT,False,True,True,True,LEFT,DOWN
270,380,UP,RIGHT,True,False,True,True,RIGHT,RIGHT
460,20,UP,RIGHT,True,False,True,True,RIGHT,RIGHT
130,70,UP,EQUAL,True,True,True,False,UP,UP
390,260,UP,RIGHT,True,True,True,False,UP,RIGHT
370,230,UP,LEFT,True,False,True,True,RIGHT,RIGHT
290,50,UP,RIGHT,True,False,True,True,RIGHT,RIGHT
280,160,UP,RIGHT,False,True,True,True,LEFT,LEFT
440,370,DOWN,RIGHT,True,False,True,True,RIGHT,RIGHT
220,360,UP,RIGHT,True,False,True,True,RIGHT,RIGHT
120,80,UP,LEFT,True,True,False,True,DOWN,DOWN
310,120,UP,LEFT,True,True,True,False,UP,LEFT
60,180,DOWN,EQUAL,True,True,False,True,DOWN,DOWN
360,430,DOWN,LEFT,True,True,False,True,DOWN,DOWN
20,330,DOWN,LEFT,True,True,False,True,DOWN,DOWN
30,440,DOWN,LEFT,False,True,True,True,LEFT,LEFT
420,20,DOWN,RIGHT,True,False,False,True,RIGHT,RIGHT
280,160,UP,LEFT,True,True,False,True,DOWN,LEFT
390,80,DOWN,RIGHT,True,False,True,True,RIGHT,RIGHT
120,70,UP,LEFT,False,True,True,True,LEFT,LEFT
400,20,EQUAL,RIGHT,True,True,True,False,UP,UP
180,360,DOWN,EQUAL,True,True,False,True,DOWN,DOWN
310,120,DOWN,RIGHT,True,True,True,False,UP,RIGHT
390,170,UP,LEFT,True,True,False,True,DOWN,DOWN
460,20,UP,RIGHT,True,False,True,True,RIGHT,RIGHT
30,410,DOWN,RIGHT,True,True,False,True,DOWN,DOWN
280,210,UP,LEFT,False,True,True,True,LEFT,LEFT
280,210,UP,EQUAL,True,True,True,False,UP,UP
450,270,DOWN,RIGHT,True,False,True,True,RIGHT,RIGHT
120,50,UP,LEFT,True,True,True,False,UP,UP
20,330,EQUAL,LEFT,False,True,True,True,LEFT,LEFT
100,50,UP,LEFT,False,True,True,True,LEFT,LEFT
260,150,UP,RIGHT,True,True,False,True,DOWN,RIGHT
50,250,DOWN,LEFT,True,True,False,True,DOWN,DOWN
180,360,DOWN,EQUAL,True,True,False,True,DOWN,DOWN
390,260,UP,RIGHT,False,True,True,True,LEFT,LEFT
460,440,DOWN,RIGHT,True,True,False,True,DOWN,DOWN
220,70,EQUAL,RIGHT,True,True,False,True,DOWN,RIGHT
50,250,UP,LEFT,False,True,True,True,LEFT,LEFT
100,10,UP,RIGHT,True,True,True,False,UP,UP
390,260,UP,LEFT,True,True,False,True,DOWN,DOWN
370,330,EQUAL,EQUAL,True,True,False,True,DOWN,DOWN
390,80,DOWN,EQUAL,True,True,False,True,DOWN,DOWN
100,10,UP,LEFT,True,True,False,True,DOWN,DOWN
430,320,DOWN,RIGHT,True,False,True,True,RIGHT,RIGHT
220,360,UP,RIGHT,True,False,True,True,RIGHT,RIGHT
180,280,EQUAL,LEFT,False,True,True,True,LEFT,LEFT
60,180,DOWN,LEFT,False,True,True,True,LEFT,LEFT
100,370,EQUAL,LEFT,False,True,True,True,LEFT,LEFT
460,190,UP,RIGHT,True,False,True,True,RIGHT,RIGHT
370,230,DOWN,LEFT,True,True,True,False,UP,UP
460,190,UP,RIGHT,True,False,True,True,RIGHT,RIGHT
40,240,DOWN,LEFT,True,True,True,False,UP,LEFT
100,10,UP,RIGHT,True,True,True,False,UP,UP
170,100,UP,RIGHT,True,True,False,True,DOWN,DOWN
460,440,DOWN,RIGHT,True,False,True,True,RIGHT,DOWN
280,450,EQUAL,LEFT,False,True,True,True,LEFT,LEFT
20,330,EQUAL,LEFT,False,True,True,True,LEFT,LEFT
460,440,DOWN,RIGHT,True,False,True,True,RIGHT,RIGHT
440,370,DOWN,RIGHT,True,False,True,True,RIGHT,RIGHT
310,120,DOWN,EQUAL,True,False,False,True,DOWN,DOWN
10,110,EQUAL,LEFT,True,True,False,True,DOWN,DOWN
10,460,DOWN,LEFT,False,True,True,True,LEFT,LEFT
210,440,UP,EQUAL,False,True,True,True,LEFT,LEFT
460,190,UP,RIGHT,True,False,True,True,RIGHT,RIGHT
260,150,EQUAL,RIGHT,True,False,True,True,RIGHT,RIGHT
290,50,UP,RIGHT,True,False,True,True,RIGHT,RIGHT
30,410,DOWN,LEFT,False,True,True,True,LEFT,LEFT
10,460,DOWN,LEFT,False,True,True,True,LEFT,LEFT
150,260,EQUAL,LEFT,False,True,True,True,LEFT,LEFT
270,120,DOWN,RIGHT,True,False,True,True,RIGHT,RIGHT
40,240,DOWN,LEFT,False,True,True,True,LEFT,DOWN
390,170,EQUAL,EQUAL,True,False,False,True,DOWN,DOWN
110,440,DOWN,RIGHT,True,True,False,True,DOWN,RIGHT
460,190,UP,RIGHT,True,False,True,True,RIGHT,RIGHT
260,150,UP,RIGHT,True,True,True,False,UP,UP
180,280,EQUAL,LEFT,True,True,True,False,UP,LEFT
40,210,EQUAL,LEFT,False,True,True,True,LEFT,LEFT
270,380,UP,RIGHT,True,False,True,True,RIGHT,RIGHT
10,460,DOWN,EQUAL,True,True,False,True,DOWN,DOWN
390,80,UP,RIGHT,True,True,True,False,UP,UP
220,70,EQUAL,RIGHT,True,False,True,True,RIGHT,RIGHT
40,400,DOWN,LEFT,True,True,True,False,UP,UP
280,160,EQUAL,RIGHT,True,True,False,False,DOWN,RIGHT
130,70,UP,EQUAL,True,True,True,False,UP,UP
40,210,UP,LEFT,True,False,True,True,RIGHT,RIGHT
120,80,EQUAL,EQUAL,True,False,True,True,RIGHT,RIGHT
150,260,EQUAL,LEFT,False,True,True,True,LEFT,LEFT
130,10,UP,RIGHT,True,True,False,True,DOWN,DOWN
30,440,DOWN,LEFT,True,True,False,True,DOWN,DOWN
150,260,EQUAL,LEFT,False,True,True,True,LEFT,LEFT
280,160,DOWN,RIGHT,True,False,True,True,RIGHT,RIGHT
10,110,DOWN,LEFT,False,True,True,True,LEFT,LEFT
130,10,DOWN,LEFT,False,True,False,True,LEFT,LEFT
130,70,UP,RIGHT,True,True,True,False,UP,UP
100,10,UP,LEFT,True,True,True,False,UP,UP
400,20,UP,RIGHT,True,False,True,True,RIGHT,RIGHT
370,230,DOWN,EQUAL,False,True,True,True,LEFT,LEFT
280,160,DOWN,RIGHT,True,False,True,True,RIGHT,RIGHT
40,400,DOWN,LEFT,False,True,True,True,LEFT,LEFT
40,240,DOWN,LEFT,False,True,True,True,LEFT,LEFT
80,410,DOWN,LEFT,True,True,False,True,DOWN,LEFT
390,80,DOWN,RIGHT,True,False,True,True,RIGHT,RIGHT
290,50,UP,RIGHT,True,False,True,True,RIGHT,RIGHT
40,240,DOWN,LEFT,False,True,True,True,LEFT,LEFT
160,420,DOWN,RIGHT,True,True,False,True,DOWN,DOWN
370,230,UP,LEFT,True,False,True,True,RIGHT,RIGHT
460,20,UP,RIGHT,True,True,True,False,UP,UP
30,440,DOWN,LEFT,False,True,True,True,LEFT,LEFT
180,360,DOWN,EQUAL,True,True,False,True,DOWN,DOWN
450,270,DOWN,RIGHT,True,False,True,True,RIGHT,RIGHT
30,410,DOWN,LEFT,False,True,True,True,LEFT,LEFT
100,370,EQUAL,LEFT,False,True,True,True,LEFT,LEFT
160,420,DOWN,EQUAL,True,True,False,True,DOWN,DOWN
40,400,DOWN,EQUAL,False,True,True,True,LEFT,DOWN
50,250,EQUAL,EQUAL,True,True,True,False,UP,UP
290,50,UP,RIGHT,True,True,True,False,UP,RIGHT
10,460,DOWN,EQUAL,True,True,False,True,DOWN,DOWN
340,300,DOWN,LEFT,True,True,False,True,DOWN,DOWN
100,50,UP,LEFT,False,True,True,True,LEFT,LEFT
370,230,DOWN,LEFT,False,True,True,True,LEFT,LEFT
380,200,UP,EQUAL,True,True,True,False,UP,UP
50,250,UP,LEFT,False,True,True,True,LEFT,LEFT
190,190,DOWN,RIGHT,True,True,False,True,DOWN,DOWN
60,180,DOWN,EQUAL,True,True,False,True,DOWN,DOWN
280,210,UP,LEFT,False,True,True,True,LEFT,LEFT
100,10,UP,LEFT,False,True,True,True,LEFT,UP
120,50,DOWN,LEFT,False,True,True,True,LEFT,LEFT
360,430,DOWN,LEFT,False,True,True,True,LEFT,LEFT
30,440,DOWN,LEFT,True,True,False,True,DOWN,DOWN
370,330,DOWN,EQUAL,True,True,False,True,DOWN,DOWN
100,50,UP,LEFT,False,True,True,True,LEFT,LEFT
280,160,DOWN,RIGHT,True,True,False,True,DOWN,DOWN
130,70,UP,EQUAL,True,True,True,False,UP,UP
320,270,UP,EQUAL,True,True,True,False,UP,UP
40,210,UP,LEFT,True,False,True,True,RIGHT,RIGHT
400,20,UP,RIGHT,True,False,True,True,RIGHT,RIGHT
150,260,EQUAL,LEFT,False,True,True,True,LEFT,LEFT
420,20,DOWN,RIGHT,True,False,False,True,RIGHT,RIGHT
370,230,DOWN,EQUAL,True,True,False,True,DOWN,DOWN
150,260,DOWN,LEFT,True,True,False,True,DOWN,DOWN
460,440,DOWN,RIGHT,True,False,True,True,RIGHT,RIGHT
290,50,UP,RIGHT,True,False,True,False,UP,UP
270,380,UP,RIGHT,True,False,True,True,RIGHT,RIGHT
80,410,DOWN,RIGHT,True,True,True,False,UP,UP
10,110,UP,LEFT,True,True,False,True,DOWN,DOWN
360,430,DOWN,RIGHT,False,True,True,True,LEFT,LEFT
390,80,DOWN,RIGHT,True,False,True,True,RIGHT,RIGHT
40,210,UP,LEFT,True,True,True,False,UP,UP
340,300,DOWN,LEFT,True,True,False,True,DOWN,DOWN
320,270,UP,RIGHT,True,False,True,False,RIGHT,RIGHT
370,230,DOWN,EQUAL,True,True,False,True,DOWN,DOWN
270,120,DOWN,LEFT,True,False,True,True,RIGHT,DOWN
430,320,DOWN,RIGHT,True,True,False,True,DOWN,DOWN
130,10,UP,EQUAL,True,True,True,False,UP,UP
30,440,DOWN,LEFT,True,True,False,True,DOWN,DOWN
450,270,DOWN,EQUAL,True,True,False,True,DOWN,DOWN
190,190,DOWN,LEFT,False,True,True,True,LEFT,LEFT
130,70,UP,RIGHT,True,False,True,True,RIGHT,RIGHT
30,440,DOWN,LEFT,True,True,False,True,DOWN,DOWN
430,320,DOWN,RIGHT,True,False,True,True,RIGHT,RIGHT
450,270,DOWN,RIGHT,True,False,True,True,RIGHT,RIGHT
100,50,UP,LEFT,False,True,True,True,LEFT,LEFT
40,240,DOWN,LEFT,False,True,True,True,LEFT,LEFT
40,210,UP,LEFT,True,True,True,False,UP,UP
370,230,DOWN,LEFT,True,True,True,False,UP,UP
30,440,DOWN,LEFT,True,True,False,True,DOWN,DOWN
430,320,DOWN,RIGHT,True,False,True,True,RIGHT,RIGHT
110,440,DOWN,RIGHT,False,True,True,True,LEFT,DOWN
130,70,UP,EQUAL,True,True,True,False,UP,UP
30,410,DOWN,LEFT,False,True,True,True,LEFT,LEFT
100,50,EQUAL,EQUAL,True,True,False,True,DOWN,DOWN
100,50,UP,LEFT,True,True,True,False,UP,UP
360,430,DOWN,LEFT,True,True,False,True,DOWN,DOWN
260,150,DOWN,RIGHT,True,False,True,True,RIGHT,RIGHT
10,110,DOWN,LEFT,False,True,True,True,LEFT,LEFT
100,370,EQUAL,LEFT,False,True,True,True,LEFT,LEFT
370,230,DOWN,EQUAL,True,True,False,True,DOWN,DOWN
380,200,UP,EQUAL,True,True,True,False,UP,UP
400,20,UP,RIGHT,True,False,True,True,RIGHT,RIGHT
150,260,DOWN,LEFT,True,True,False,True,DOWN,DOWN
400,20,UP,RIGHT,True,False,True,True,RIGHT,RIGHT
150,260,EQUAL,LEFT,False,True,True,True,LEFT,LEFT
60,180,DOWN,LEFT,False,True,True,True,LEFT,LEFT
320,270,UP,EQUAL,True,True,True,False,UP,UP
40,400,DOWN,LEFT,False,True,True,True,LEFT,LEFT
400,20,DOWN,RIGHT,True,True,True,False,UP,RIGHT
430,320,DOWN,RIGHT,True,False,True,True,RIGHT,RIGHT
50,250,DOWN,LEFT,True,True,False,True,DOWN,DOWN
290,50,UP,RIGHT,True,False,True,True,RIGHT,RIGHT
260,150,UP,RIGHT,True,False,True,True,RIGHT,RIGHT
260,150,DOWN,RIGHT,True,False,True,True,RIGHT,RIGHT
210,440,UP,RIGHT,False,True,True,True,LEFT,LEFT
170,100,UP,EQUAL,True,True,True,False,UP,UP
420,20,DOWN,RIGHT,True,False,False,True,RIGHT,RIGHT
130,10,UP,RIGHT,True,True,False,True,DOWN,DOWN
40,240,UP,LEFT,True,True,True,False,UP,UP
280,450,EQUAL,EQUAL,True,True,False,True,DOWN,DOWN
160,410,UP,RIGHT,False,True,True,True,LEFT,LEFT
430,320,DOWN,RIGHT,True,True,False,True,DOWN,DOWN
20,330,EQUAL,LEFT,False,True,True,True,LEFT,LEFT
460,440,DOWN,RIGHT,True,False,True,True,RIGHT,RIGHT
80,410,DOWN,EQUAL,True,True,False,True,DOWN,DOWN
120,50,UP,LEFT,True,True,True,False,UP,UP
10,110,DOWN,LEFT,False,True,True,True,LEFT,LEFT
40,210,UP,LEFT,True,True,True,False,UP,UP
10,460,DOWN,EQUAL,True,True,False,True,DOWN,DOWN
290,50,UP,EQUAL,True,True,True,False,UP,UP
400,20,DOWN,RIGHT,True,False,True,True,RIGHT,RIGHT
190,190,DOWN,EQUAL,True,True,False,True,DOWN,DOWN
310,120,DOWN,EQUAL,True,False,False,True,DOWN,DOWN
30,440,DOWN,LEFT,True,True,False,True,DOWN,DOWN
430,320,DOWN,RIGHT,True,False,True,True,RIGHT,RIGHT
130,70,UP,EQUAL,True,True,True,False,UP,UP
450,270,DOWN,RIGHT,True,True,False,True,DOWN,DOWN
210,440,DOWN,RIGHT,True,True,True,False,UP,UP
390,260,UP,LEFT,True,True,False,True,DOWN,DOWN
100,370,EQUAL,LEFT,False,True,True,True,LEFT,LEFT
340,300,UP,LEFT,False,True,True,True,LEFT,LEFT
450,270,DOWN,RIGHT,True,False,True,True,RIGHT,RIGHT
280,160,DOWN,RIGHT,True,False,True,True,RIGHT,RIGHT
400,20,UP,RIGHT,True,True,True,False,UP,UP
280,210,UP,EQUAL,True,True,True,False,UP,UP
370,230,UP,LEFT,True,False,True,True,RIGHT,RIGHT
430,320,DOWN,RIGHT,True,False,True,True,RIGHT,RIGHT
30,410,DOWN,LEFT,False,True,True,True,LEFT,LEFT
40,400,DOWN,EQUAL,True,True,False,True,DOWN,DOWN
310,120,UP,RIGHT,True,True,True,False,UP,UP
40,210,UP,LEFT,True,False,True,True,RIGHT,RIGHT
310,120,UP,RIGHT,False,True,True,True,LEFT,LEFT
150,260,DOWN,LEFT,True,True,False,True,DOWN,DOWN
30,410,DOWN,EQUAL,False,True,True,True,LEFT,LEFT
80,410,DOWN,EQUAL,False,True,True,True,LEFT,DOWN
80,410,DOWN,RIGHT,True,False,True,True,RIGHT,RIGHT
430,320,DOWN,RIGHT,True,True,False,True,DOWN,DOWN
120,50,DOWN,LEFT,False,True,True,True,LEFT,DOWN
290,50,UP,EQUAL,True,True,True,False,UP,UP
30,440,DOWN,LEFT,True,True,False,True,DOWN,DOWN
100,370,EQUAL,LEFT,False,True,True,True,LEFT,LEFT
100,50,UP,LEFT,False,True,True,True,LEFT,UP
30,440,DOWN,LEFT,True,True,False,True,DOWN,DOWN
170,100,UP,LEFT,True,True,True,False,UP,UP
40,240,EQUAL,LEFT,False,True,True,True,LEFT,LEFT
30,410,EQUAL,LEFT,True,True,True,False,UP,LEFT
460,440,DOWN,RIGHT,False,True,True,True,LEFT,LEFT
20,330,DOWN,LEFT,True,False,True,True,RIGHT,RIGHT
390,80,DOWN,RIGHT,True,False,True,True,RIGHT,RIGHT
120,50,DOWN,LEFT,False,True,True,True,LEFT,LEFT
360,430,DOWN,RIGHT,False,True,True,True,LEFT,DOWN
390,170,UP,EQUAL,False,True,True,False,UP,UP
80,410,DOWN,LEFT,False,True,True,True,LEFT,LEFT
190,190,DOWN,LEFT,False,True,True,True,LEFT,LEFT
180,360,DOWN,RIGHT,True,False,True,True,RIGHT,RIGHT
160,420,DOWN,EQUAL,False,True,True,True,LEFT,DOWN
100,370,EQUAL,LEFT,False,True,True,True,LEFT,LEFT
40,400,DOWN,LEFT,False,True,True,True,LEFT,LEFT
280,160,DOWN,RIGHT,True,False,True,True,RIGHT,RIGHT
30,440,DOWN,LEFT,True,True,False,True,DOWN,DOWN
380,200,UP,LEFT,False,True,True,True,LEFT,LEFT
120,70,UP,LEFT,False,True,True,True,LEFT,LEFT
450,270,DOWN,RIGHT,True,False,True,True,RIGHT,RIGHT
390,260,UP,RIGHT,True,True,True,False,UP,UP
280,210,UP,LEFT,True,True,False,True,DOWN,DOWN
160,420,DOWN,RIGHT,True,True,False,True,DOWN,DOWN
150,260,DOWN,LEFT,True,True,False,True,DOWN,DOWN
130,70,UP,RIGHT,True,False,True,True,RIGHT,RIGHT
50,250,DOWN,LEFT,True,True,False,True,DOWN,DOWN
370,230,UP,EQUAL,True,False,True,True,RIGHT,RIGHT
460,440,DOWN,RIGHT,True,False,True,True,RIGHT,RIGHT
360,430,DOWN,LEFT,True,True,False,True,DOWN,DOWN
460,440,DOWN,RIGHT,True,True,False,True,DOWN,DOWN
60,180,DOWN,EQUAL,True,True,False,True,DOWN,DOWN
430,320,DOWN,RIGHT,True,False,True,True,RIGHT,RIGHT
300,330,EQUAL,RIGHT,True,True,True,False,UP,RIGHT
160,410,EQUAL,LEFT,True,True,False,True,DOWN,DOWN
100,370,DOWN,LEFT,True,True,False,True,DOWN,DOWN
390,80,DOWN,RIGHT,True,False,True,True,RIGHT,RIGHT
220,70,DOWN,RIGHT,True,True,True,False,UP,UP
370,230,DOWN,LEFT,True,True,True,False,UP,UP
310,120,UP,LEFT,True,True,True,False,UP,UP
390,170,DOWN,RIGHT,True,False,True,True,RIGHT,RIGHT
420,20,DOWN,RIGHT,True,False,False,True,RIGHT,RIGHT
360,430,EQUAL,EQUAL,True,True,False,True,DOWN,DOWN
30,410,DOWN,LEFT,True,True,True,False,UP,UP
40,400,DOWN,LEFT,False,True,True,True,LEFT,LEFT
430,320,DOWN,RIGHT,True,False,True,True,RIGHT,RIGHT
350,310,UP,RIGHT,True,False,True,True,RIGHT,RIGHT
30,440,DOWN,LEFT,True,True,False,True,DOWN,DOWN
430,320,DOWN,RIGHT,True,False,True,True,RIGHT,RIGHT
40,210,UP,LEFT,True,False,True,True,RIGHT,RIGHT
20,330,DOWN,LEFT,True,True,False,True,DOWN,DOWN
450,270,DOWN,RIGHT,True,True,False,True,DOWN,RIGHT
280,210,UP,EQUAL,True,True,True,False,UP,UP
280,210,UP,LEFT,False,True,True,True,LEFT,LEFT
460,20,UP,RIGHT,True,False,True,True,RIGHT,RIGHT
100,50,UP,LEFT,True,True,True,False,UP,UP
190,190,DOWN,LEFT,True,True,True,False,UP,LEFT
40,400,DOWN,LEFT,False,True,True,True,LEFT,LEFT
310,120,UP,LEFT,True,True,True,False,UP,UP
340,300,UP,LEFT,False,True,True,True,LEFT,LEFT
160,420,DOWN,RIGHT,True,True,False,True,DOWN,DOWN
110,440,EQUAL,RIGHT,True,True,False,True,DOWN,RIGHT
440,80,EQUAL,RIGHT,True,False,True,True,RIGHT,RIGHT
110,440,DOWN,LEFT,False,True,True,True,LEFT,LEFT
40,210,EQUAL,LEFT,False,True,True,True,LEFT,LEFT
290,50,UP,RIGHT,True,False,True,False,UP,UP
290,50,UP,EQUAL,True,True,True,False,UP,UP
460,440,DOWN,RIGHT,True,False,True,True,RIGHT,RIGHT
100,10,UP,RIGHT,True,True,True,False,UP,UP
30,440,DOWN,LEFT,False,True,True,True,LEFT,DOWN
110,440,DOWN,RIGHT,True,True,False,True,DOWN,DOWN
430,320,DOWN,RIGHT,True,True,False,True,DOWN,DOWN
40,210,UP,LEFT,True,True,True,False,UP,UP
190,190,DOWN,EQUAL,True,True,False,True,DOWN,DOWN
350,310,UP,RIGHT,True,False,True,True,RIGHT,RIGHT
210,440,DOWN,RIGHT,True,True,False,True,DOWN,DOWN
220,360,UP,RIGHT,True,False,True,True,RIGHT,RIGHT
170,100,UP,LEFT,True,True,True,False,UP,UP
360,430,DOWN,LEFT,True,True,False,True,DOWN,DOWN
310,120,DOWN,EQUAL,True,False,False,True,DOWN,DOWN
160,420,DOWN,RIGHT,True,True,False,True,DOWN,DOWN
190,190,DOWN,RIGHT,True,True,False,True,DOWN,DOWN
310,120,UP,LEFT,True,False,True,True,RIGHT,UP
100,10,UP,RIGHT,True,True,True,False,UP,UP
390,80,UP,RIGHT,True,True,True,False,UP,UP
120,70,UP,LEFT,False,True,True,True,LEFT,LEFT
40,400,DOWN,LEFT,False,True,True,True,LEFT,LEFT
40,210,EQUAL,LEFT,False,True,True,True,LEFT,LEFT
260,150,DOWN,RIGHT,True,False,True,True,RIGHT,RIGHT
380,200,UP,EQUAL,True,True,True,False,UP,UP
220,70,EQUAL,RIGHT,True,False,True,True,RIGHT,RIGHT
40,400,DOWN,LEFT,False,True,True,True,LEFT,LEFT
390,260,UP,LEFT,True,True,False,True,DOWN,DOWN
170,100,DOWN,LEFT,False,True,True,True,LEFT,LEFT
150,260,EQUAL,LEFT,False,True,True,True,LEFT,LEFT
210,440,DOWN,RIGHT,True,False,True,True,RIGHT,RIGHT
400,20,UP,RIGHT,True,False,True,True,RIGHT,UP
100,50,UP,LEFT,True,True,True,False,UP,UP
20,330,DOWN,LEFT,True,True,False,True,DOWN,DOWN
170,100,UP,LEFT,True,True,True,False,UP,UP
210,440,EQUAL,EQUAL,True,False,True,True,RIGHT,RIGHT
370,230,DOWN,LEFT,False,True,True,True,LEFT,LEFT
100,370,DOWN,LEFT,True,True,False,True,DOWN,DOWN
160,420,DOWN,EQUAL,True,True,False,True,DOWN,DOWN
100,50,UP,LEFT,False,True,True,True,LEFT,LEFT
100,10,UP,RIGHT,True,True,True,False,UP,UP
100,10,UP,LEFT,False,True,True,False,UP,UP
370,330,DOWN,EQUAL,True,True,False,True,DOWN,DOWN
370,330,DOWN,EQUAL,True,True,False,True,DOWN,DOWN
60,180,DOWN,EQUAL,True,True,False,True,DOWN,DOWN
420,20,DOWN,RIGHT,True,False,False,True,RIGHT,RIGHT
100,50,UP,LEFT,False,True,True,True,LEFT,LEFT
320,270,UP,RIGHT,True,False,True,False,RIGHT,RIGHT
130,70,UP,EQUAL,True,True,True,False,UP,UP
180,280,EQUAL,LEFT,False,True,True,True,LEFT,LEFT
450,270,DOWN,RIGHT,True,False,True,True,RIGHT,RIGHT
270,380,UP,RIGHT,True,False,True,True,RIGHT,RIGHT
420,20,DOWN,RIGHT,True,False,False,True,RIGHT,RIGHT
310,120,UP,RIGHT,True,False,True,True,RIGHT,RIGHT
460,440,DOWN,RIGHT,True,True,False,True,DOWN,DOWN
360,430,DOWN,LEFT,True,True,False,True,DOWN,DOWN
280,210,UP,LEFT,False,True,True,True,LEFT,LEFT
170,100,UP,RIGHT,True,True,False,True,DOWN,DOWN
390,80,DOWN,RIGHT,True,True,True,False,UP,UP
430,320,DOWN,RIGHT,True,False,True,True,RIGHT,RIGHT
130,70,UP,RIGHT,True,True,True,False,UP,UP
40,240,UP,LEFT,True,True,True,False,UP,UP
190,190,DOWN,LEFT,False,True,True,True,LEFT,LEFT
270,120,EQUAL,EQUAL,True,False,True,True,RIGHT,RIGHT
190,190,DOWN,LEFT,False,True,True,True,LEFT,LEFT
360,430,DOWN,LEFT,True,True,False,True,DOWN,DOWN
100,50,UP,LEFT,True,True,False,True,DOWN,DOWN
400,20,UP,RIGHT,True,False,True,True,RIGHT,UP
280,450,EQUAL,LEFT,True,True,False,True,DOWN,LEFT
280,210,UP,LEFT,False,True,True,True,LEFT,LEFT
40,210,EQUAL,LEFT,False,True,True,True,LEFT,LEFT
100,370,DOWN,LEFT,True,True,False,True,DOWN,DOWN
440,80,UP,RIGHT,True,True,True,False,UP,UP
350,310,UP,EQUAL,True,True,True,False,UP,UP
280,210,UP,LEFT,False,True,True,True,LEFT,LEFT
160,420,DOWN,LEFT,False,True,True,True,LEFT,LEFT
450,270,DOWN,RIGHT,True,True,False,True,DOWN,DOWN
160,410,UP,EQUAL,False,True,True,True,LEFT,LEFT
460,20,UP,EQUAL,True,True,True,False,UP,UP
160,420,DOWN,RIGHT,True,True,False,True,DOWN,DOWN
400,20,EQUAL,EQUAL,True,True,True,False,UP,UP
130,70,UP,RIGHT,True,False,True,True,RIGHT,UP
110,440,DOWN,LEFT,True,True,False,True,DOWN,DOWN
120,70,UP,LEFT,False,True,True,True,LEFT,LEFT
40,400,DOWN,EQUAL,True,True,False,True,DOWN,DOWN
220,70,DOWN,RIGHT,True,False,True,True,RIGHT,DOWN
210,440,DOWN,RIGHT,True,False,True,True,RIGHT,RIGHT
30,440,DOWN,LEFT,True,True,False,True,DOWN,DOWN
40,400,EQUAL,EQUAL,True,True,True,False,UP,UP
100,10,UP,RIGHT,True,True,True,False,UP,UP
30,410,DOWN,LEFT,False,True,True,True,LEFT,LEFT
120,80,UP,LEFT,True,True,False,True,DOWN,DOWN
120,80,UP,LEFT,True,True,False,True,DOWN,DOWN
210,440,DOWN,RIGHT,True,False,True,True,RIGHT,RIGHT
190,190,DOWN,LEFT,False,True,True,True,LEFT,LEFT
390,80,DOWN,RIGHT,True,False,True,True,RIGHT,RIGHT
30,440,DOWN,LEFT,True,True,False,True,DOWN,DOWN
360,430,DOWN,LEFT,True,True,False,True,DOWN,DOWN
400,20,UP,RIGHT,True,False,True,True,RIGHT,RIGHT
460,20,UP,RIGHT,True,False,True,True,RIGHT,RIGHT
160,410,UP,RIGHT,False,True,True,True,LEFT,UP
100,370,EQUAL,LEFT,False,True,True,True,LEFT,LEFT
130,70,UP,RIGHT,True,False,True,True,RIGHT,RIGHT
290,50,UP,EQUAL,True,True,True,False,UP,UP
100,370,EQUAL,LEFT,False,True,True,True,LEFT,LEFT
220,70,EQUAL,RIGHT,True,False,True,True,RIGHT,RIGHT
100,370,EQUAL,LEFT,False,True,True,True,LEFT,LEFT
50,250,DOWN,LEFT,True,True,False,True,DOWN,DOWN
360,430,EQUAL,RIGHT,True,False,False,True,RIGHT,RIGHT
270,120,DOWN,LEFT,True,True,False,True,DOWN,DOWN
260,150,DOWN,RIGHT,True,True,True,False,UP,RIGHT
320,270,UP,RIGHT,True,False,True,False,RIGHT,RIGHT
280,160,UP,EQUAL,False,True,True,True,LEFT,LEFT
430,320,DOWN,RIGHT,True,False,True,True,RIGHT,RIGHT
130,70,UP,RIGHT,True,False,True,True,RIGHT,RIGHT
40,400,DOWN,EQUAL,True,True,False,True,DOWN,DOWN
310,120,UP,LEFT,True,True,True,False,UP,UP
160,410,EQUAL,EQUAL,True,True,False,True,DOWN,DOWN
100,10,UP,RIGHT,True,True,True,False,UP,UP
120,50,DOWN,LEFT,False,True,True,True,LEFT,LEFT
100,370,DOWN,LEFT,True,True,False,True,DOWN,DOWN
290,50,UP,RIGHT,True,False,True,False,UP,UP
100,370,DOWN,LEFT,True,True,False,True,DOWN,DOWN
30,440,DOWN,LEFT,True,True,False,True,DOWN,DOWN
30,410,DOWN,LEFT,False,True,True,True,LEFT,LEFT
10,110,DOWN,LEFT,False,True,True,True,LEFT,LEFT
210,440,DOWN,RIGHT,True,True,False,True,DOWN,DOWN
100,50,UP,LEFT,False,True,True,True,LEFT,LEFT
310,120,UP,LEFT,True,True,True,False,UP,UP
460,190,UP,EQUAL,True,True,True,False,UP,UP
160,420,DOWN,RIGHT,True,True,False,True,DOWN,DOWN
130,10,DOWN,EQUAL,False,True,False,True,LEFT,LEFT
220,360,UP,EQUAL,True,True,True,False,UP,UP
450,270,EQUAL,EQUAL,True,False,True,True,RIGHT,RIGHT
210,440,DOWN,RIGHT,True,True,True,False,UP,UP
190,190,DOWN,LEFT,False,True,True,True,LEFT,LEFT
30,410,DOWN,RIGHT,True,True,False,True,DOWN,DOWN
10,460,DOWN,EQUAL,True,True,False,True,DOWN,DOWN
40,240,UP,LEFT,True,True,True,False,UP,UP
460,20,UP,EQUAL,True,False,True,True,RIGHT,UP
430,320,DOWN,RIGHT,False,True,True,True,LEFT,DOWN
150,260,DOWN,LEFT,False,True,True,True,LEFT,LEFT
260,150,UP,RIGHT,True,True,False,True,DOWN,DOWN
10,460,DOWN,LEFT,False,True,True,True,LEFT,LEFT
120,70,UP,LEFT,False,True,True,True,LEFT,LEFT
290,50,UP,EQUAL,True,True,True,False,UP,UP
380,200,UP,EQUAL,True,True,True,False,UP,UP
440,370,DOWN,RIGHT,True,False,True,True,RIGHT,RIGHT
270,120,DOWN,EQUAL,True,False,True,True,RIGHT,RIGHT
350,310,UP,RIGHT,True,False,True,True,RIGHT,RIGHT
170,100,EQUAL,EQUAL,True,True,True,False,UP,UP
110,440,DOWN,LEFT,True,False,True,True,RIGHT,DOWN
290,50,UP,EQUAL,True,False,True,True,RIGHT,UP
130,70,UP,RIGHT,True,True,True,False,UP,UP
460,20,UP,RIGHT,True,False,True,True,RIGHT,RIGHT
310,120,DOWN,EQUAL,True,False,False,True,DOWN,DOWN
160,410,EQUAL,RIGHT,True,False,True,False,RIGHT,RIGHT
460,440,DOWN,RIGHT,True,False,True,True,RIGHT,RIGHT
50,250,DOWN,LEFT,True,True,False,True,DOWN,DOWN
280,450,EQUAL,LEFT,False,True,True,True,LEFT,LEFT
50,250,DOWN,LEFT,True,True,False,True,DOWN,DOWN
10,460,DOWN,EQUAL,True,True,False,True,DOWN,DOWN
290,50,UP,EQUAL,True,True,True,False,UP,UP
350,310,UP,EQUAL,True,True,True,False,UP,UP
150,260,EQUAL,LEFT,False,True,True,True,LEFT,LEFT
370,230,DOWN,RIGHT,False,True,True,True,LEFT,LEFT
30,440,DOWN,LEFT,False,True,True,True,LEFT,LEFT
30,410,UP,LEFT,True,False,True,True,RIGHT,RIGHT
80,410,DOWN,RIGHT,True,True,True,False,UP,UP
430,320,DOWN,RIGHT,True,False,True,True,RIGHT,RIGHT
210,440,UP,RIGHT,False,True,True,True,LEFT,LEFT
170,100,DOWN,LEFT,False,True,True,True,LEFT,LEFT
30,410,DOWN,LEFT,False,True,True,True,LEFT,LEFT
20,330,EQUAL,LEFT,False,True,True,True,LEFT,LEFT
100,50,UP,LEFT,False,True,True,True,LEFT,LEFT
370,230,DOWN,LEFT,False,True,True,True,LEFT,LEFT
280,160,UP,RIGHT,False,True,True,True,LEFT,LEFT
190,190,DOWN,LEFT,False,True,True,True,LEFT,LEFT
210,440,DOWN,RIGHT,True,False,True,True,RIGHT,RIGHT
110,440,DOWN,RIGHT,True,True,False,True,DOWN,DOWN
280,210,UP,LEFT,False,True,True,True,LEFT,LEFT
20,330,EQUAL,LEFT,False,True,True,True,LEFT,LEFT
190,190,DOWN,RIGHT,True,True,False,True,DOWN,DOWN
100,10,UP,RIGHT,False,True,True,True,LEFT,UP
390,80,UP,RIGHT,True,True,True,False,UP,UP
290,50,UP,RIGHT,True,False,True,True,RIGHT,RIGHT
270,380,UP,EQUAL,True,True,True,False,UP,UP
400,20,EQUAL,RIGHT,True,True,True,False,UP,RIGHT
270,380,UP,EQUAL,True,True,True,False,UP,UP
380,200,UP,EQUAL,True,True,True,False,UP,UP
170,100,UP,EQUAL,True,False,True,False,UP,UP
40,240,UP,LEFT,True,True,True,False,UP,UP
40,400,DOWN,LEFT,True,True,True,False,UP,LEFT
280,210,UP,LEFT,False,True,True,True,LEFT,LEFT
100,50,UP,EQUAL,True,True,True,False,UP,UP
120,70,UP,LEFT,False,True,True,True,LEFT,LEFT
310,120,UP,RIGHT,True,True,True,False,UP,UP
130,10,UP,EQUAL,True,True,True,False,UP,UP
40,210,UP,LEFT,True,True,True,False,UP,UP
280,160,EQUAL,RIGHT,True,False,True,False,RIGHT,RIGHT
290,50,UP,EQUAL,True,True,True,False,UP,UP
280,160,DOWN,RIGHT,True,False,True,True,RIGHT,RIGHT
100,10,UP,RIGHT,True,True,True,False,UP,UP
220,360,UP,RIGHT,True,False,True,True,RIGHT,RIGHT
130,70,UP,RIGHT,True,True,True,False,UP,UP
270,120,DOWN,RIGHT,True,False,True,True,RIGHT,RIGHT
260,150,UP,RIGHT,True,False,True,True,RIGHT,RIGHT
280,160,UP,RIGHT,False,True,True,True,LEFT,LEFT
190,190,DOWN,LEFT,False,True,True,True,LEFT,LEFT
310,120,UP,LEFT,True,True,True,False,UP,UP
210,440,DOWN,RIGHT,True,True,True,False,UP,UP
100,370,DOWN,LEFT,True,True,False,True,DOWN,DOWN
160,420,DOWN,LEFT,False,True,True,True,LEFT,LEFT
100,370,EQUAL,LEFT,False,True,True,True,LEFT,LEFT
450,270,DOWN,RIGHT,True,False,True,True,RIGHT,RIGHT
340,300,DOWN,LEFT,True,True,False,True,DOWN,DOWN
420,20,DOWN,RIGHT,True,False,False,True,RIGHT,RIGHT
370,230,DOWN,LEFT,False,True,True,True,LEFT,LEFT
110,440,DOWN,LEFT,True,True,False,True,DOWN,DOWN
30,410,DOWN,LEFT,False,True,True,True,LEFT,LEFT
40,400,DOWN,EQUAL,True,True,False,True,DOWN,DOWN
40,400,DOWN,EQUAL,True,True,False,True,DOWN,DOWN
360,430,DOWN,LEFT,True,True,False,True,DOWN,DOWN
280,210,UP,LEFT,False,True,True,True,LEFT,LEFT
390,260,UP,RIGHT,True,True,True,False,UP,UP
180,80,DOWN,RIGHT,True,True,False,True,DOWN,DOWN
30,440,DOWN,LEFT,False,True,True,True,LEFT,LEFT
100,10,UP,LEFT,False,True,True,False,UP,UP
190,190,DOWN,LEFT,False,True,True,True,LEFT,LEFT
100,50,UP,LEFT,True,True,True,False,UP,LEFT
280,160,DOWN,RIGHT,True,False,True,True,RIGHT,RIGHT
150,260,DOWN,LEFT,False,True,True,True,LEFT,LEFT
40,210,UP,LEFT,True,True,True,False,UP,UP
440,370,DOWN,RIGHT,True,False,True,True,RIGHT,RIGHT
320,270,UP,EQUAL,True,True,True,False,UP,UP
400,20,EQUAL,RIGHT,True,False,True,True,RIGHT,RIGHT
30,440,DOWN,LEFT,True,True,False,True,DOWN,DOWN
150,260,DOWN,LEFT,False,True,True,True,LEFT,LEFT
80,410,DOWN,RIGHT,True,False,True,True,RIGHT,DOWN
100,370,EQUAL,LEFT,False,True,True,True,LEFT,LEFT
460,440,DOWN,RIGHT,True,True,False,True,DOWN,DOWN
40,400,DOWN,EQUAL,True,True,False,True,DOWN,DOWN
270,380,UP,EQUAL,True,True,True,False,UP,UP
190,190,DOWN,LEFT,False,True,True,True,LEFT,LEFT
390,260,UP,EQUAL,True,True,True,False,UP,UP
120,80,UP,LEFT,True,True,False,True,DOWN,DOWN
120,80,UP,LEFT,False,False,True,True,RIGHT,RIGHT
320,270,UP,EQUAL,True,True,True,False,UP,UP
280,450,DOWN,LEFT,True,True,False,True,DOWN,DOWN
400,20,UP,RIGHT,True,False,True,True,RIGHT,RIGHT
20,330,EQUAL,LEFT,False,True,True,True,LEFT,LEFT
40,240,DOWN,LEFT,False,True,True,True,LEFT,LEFT
350,310,UP,EQUAL,True,True,True,False,UP,UP
10,110,UP,EQUAL,False,True,True,False,UP,UP
380,200,UP,LEFT,False,True,True,True,LEFT,LEFT
100,370,EQUAL,LEFT,False,True,True,True,LEFT,LEFT
100,370,DOWN,LEFT,True,True,False,True,DOWN,DOWN
100,50,UP,EQUAL,True,True,True,False,UP,UP
40,400,DOWN,LEFT,False,True,True,True,LEFT,LEFT
440,80,UP,RIGHT,True,True,True,False,UP,UP
30,440,DOWN,LEFT,True,True,False,True,DOWN,DOWN
80,410,DOWN,LEFT,True,True,False,True,DOWN,DOWN
100,10,UP,RIGHT,True,True,True,False,UP,UP
10,460,DOWN,LEFT,False,True,True,True,LEFT,LEFT
280,210,UP,LEFT,False,True,True,True,LEFT,LEFT
50,250,DOWN,LEFT,True,True,True,False,UP,UP
460,440,DOWN,RIGHT,True,True,False,True,DOWN,DOWN
360,430,EQUAL,RIGHT,True,True,False,True,DOWN,RIGHT
20,330,EQUAL,LEFT,False,True,True,True,LEFT,LEFT
420,20,DOWN,RIGHT,True,False,False,True,RIGHT,RIGHT
100,50,UP,EQUAL,True,True,True,False,UP,UP
460,20,UP,RIGHT,True,False,True,True,RIGHT,RIGHT
100,370,DOWN,LEFT,True,True,False,True,DOWN,DOWN
40,240,DOWN,LEFT,False,True,True,True,LEFT,LEFT
460,20,UP,RIGHT,True,False,True,True,RIGHT,RIGHT
280,450,EQUAL,LEFT,False,True,True,True,LEFT,LEFT
290,50,UP,RIGHT,True,True,True,False,UP,UP
280,160,UP,RIGHT,False,True,True,True,LEFT,LEFT
320,270,EQUAL,EQUAL,True,True,False,True,DOWN,DOWN
220,360,UP,RIGHT,True,False,True,True,RIGHT,RIGHT
100,370,EQUAL,LEFT,False,True,True,True,LEFT,LEFT
430,320,DOWN,RIGHT,True,False,True,True,RIGHT,RIGHT
30,440,DOWN,LEFT,True,True,False,True,DOWN,DOWN
30,410,EQUAL,LEFT,False,True,True,False,LEFT,LEFT
80,410,DOWN,RIGHT,True,True,False,True,DOWN,DOWN
310,120,UP,RIGHT,True,True,True,False,UP,UP
430,320,DOWN,RIGHT,True,False,True,True,RIGHT,RIGHT
380,200,UP,EQUAL,True,True,True,False,UP,UP
350,310,UP,RIGHT,True,False,True,True,RIGHT,RIGHT
30,410,DOWN,LEFT,True,True,True,False,UP,UP
30,440,DOWN,LEFT,True,True,False,True,DOWN,DOWN
320,270,UP,EQUAL,True,True,True,False,UP,UP
420,20,DOWN,RIGHT,True,False,False,True,RIGHT,RIGHT
370,230,DOWN,LEFT,True,True,True,False,UP,UP
370,230,DOWN,RIGHT,True,True,False,True,DOWN,DOWN
460,440,DOWN,RIGHT,True,True,False,True,DOWN,DOWN
40,210,EQUAL,LEFT,False,True,True,True,LEFT,LEFT
360,430,DOWN,LEFT,True,True,False,True,DOWN,DOWN
30,410,DOWN,LEFT,True,True,True,False,UP,UP
100,50,UP,LEFT,False,True,True,True,LEFT,LEFT
40,210,EQUAL,LEFT,False,True,True,True,LEFT,LEFT
340,300,DOWN,LEFT,True,True,False,True,DOWN,DOWN
320,270,UP,RIGHT,True,False,True,False,RIGHT,RIGHT
460,440,DOWN,RIGHT,True,False,True,True,RIGHT,RIGHT
280,160,DOWN,RIGHT,True,False,True,True,RIGHT,DOWN
120,50,UP,LEFT,True,True,True,False,UP,UP
390,260,UP,EQUAL,True,True,True,False,UP,UP
60,180,DOWN,EQUAL,True,True,False,True,DOWN,DOWN
390,260,UP,EQUAL,True,True,True,False,UP,UP
280,160,UP,RIGHT,False,True,True,True,LEFT,LEFT
100,50,UP,LEFT,False,True,True,True,LEFT,LEFT
430,320,DOWN,RIGHT,True,False,True,True,RIGHT,RIGHT
350,310,UP,RIGHT,True,False,True,True,RIGHT,RIGHT
100,50,UP,LEFT,True,True,True,False,UP,UP
80,410,DOWN,LEFT,True,True,False,True,DOWN,DOWN
460,190,EQUAL,EQUAL,True,True,False,True,DOWN,DOWN
180,80,EQUAL,RIGHT,True,False,True,True,RIGHT,RIGHT
20,330,DOWN,LEFT,True,True,False,True,DOWN,DOWN
100,10,UP,LEFT,True,True,False,True,DOWN,DOWN
280,160,DOWN,RIGHT,True,False,True,True,RIGHT,RIGHT
440,370,DOWN,RIGHT,True,False,True,True,RIGHT,RIGHT
60,180,DOWN,EQUAL,True,True,False,True,DOWN,DOWN
30,440,DOWN,LEFT,True,False,True,True,RIGHT,RIGHT
350,310,UP,RIGHT,True,False,True,True,RIGHT,RIGHT
150,260,EQUAL,LEFT,False,True,True,True,LEFT,LEFT
460,440,DOWN,RIGHT,True,False,True,True,RIGHT,RIGHT
30,410,DOWN,RIGHT,False,True,True,True,LEFT,DOWN
390,80,DOWN,RIGHT,True,False,True,True,RIGHT,RIGHT
40,210,UP,LEFT,True,True,True,False,UP,UP
360,430,DOWN,LEFT,True,True,False,True,DOWN,DOWN
210,440,DOWN,RIGHT,True,True,True,False,UP,UP
40,210,UP,LEFT,True,True,True,False,UP,UP
340,300,DOWN,LEFT,True,True,False,True,DOWN,DOWN
190,190,DOWN,LEFT,False,True,True,True,LEFT,LEFT
210,440,DOWN,RIGHT,True,True,False,True,DOWN,DOWN
150,260,EQUAL,LEFT,False,True,True,True,LEFT,LEFT
210,440,DOWN,RIGHT,True,True,True,False,UP,UP
460,440,DOWN,RIGHT,True,True,True,False,UP,UP
30,440,DOWN,LEFT,True,True,False,True,DOWN,DOWN
80,410,DOWN,LEFT,True,False,True,True,RIGHT,RIGHT
190,190,DOWN,LEFT,False,True,True,True,LEFT,LEFT
390,80,UP,RIGHT,True,True,True,False,UP,UP
170,100,UP,LEFT,True,True,True,False,UP,UP
130,10,DOWN,LEFT,True,True,False,False,UP,LEFT
40,240,DOWN,LEFT,False,True,True,True,LEFT,LEFT
390,80,DOWN,EQUAL,True,False,True,True,RIGHT,DOWN
190,190,DOWN,LEFT,False,True,True,True,LEFT,LEFT
160,420,DOWN,EQUAL,True,True,False,True,DOWN,DOWN
20,330,EQUAL,LEFT,False,True,True,True,LEFT,LEFT
40,400,DOWN,EQUAL,True,True,False,True,DOWN,DOWN
300,330,EQUAL,EQUAL,True,True,True,False,UP,UP
280,160,DOWN,RIGHT,True,False,True,True,RIGHT,RIGHT
150,260,EQUAL,LEFT,False,True,True,True,LEFT,LEFT
120,80,UP,LEFT,True,True,False,True,DOWN,DOWN
460,440,DOWN,RIGHT,True,False,True,True,RIGHT,RIGHT
170,100,DOWN,LEFT,False,True,True,True,LEFT,LEFT
40,400,DOWN,LEFT,False,True,True,True,LEFT,LEFT
130,10,UP,LEFT,True,False,True,True,RIGHT,UP
270,380,UP,RIGHT,True,False,True,True,RIGHT,RIGHT
440,370,DOWN,RIGHT,True,False,True,True,RIGHT,RIGHT
280,450,EQUAL,LEFT,False,True,True,True,LEFT,LEFT
280,160,DOWN,RIGHT,True,False,True,True,RIGHT,RIGHT
120,70,UP,EQUAL,True,True,True,False,UP,UP
40,400,DOWN,LEFT,False,True,True,True,LEFT,LEFT
100,10,UP,RIGHT,True,True,True,False,UP,UP
210,440,DOWN,RIGHT,True,False,True,True,RIGHT,RIGHT
120,80,UP,LEFT,True,True,False,True,DOWN,DOWN
290,50,UP,RIGHT,True,False,True,False,UP,UP
30,410,DOWN,LEFT,False,True,True,True,LEFT,LEFT
40,210,UP,LEFT,True,True,True,False,UP,UP
170,100,EQUAL,RIGHT,True,True,False,True,DOWN,DOWN
100,370,EQUAL,LEFT,False,True,True,True,LEFT,LEFT
220,360,UP,RIGHT,True,False,True,True,RIGHT,RIGHT
20,330,EQUAL,LEFT,False,True,True,True,LEFT,LEFT
460,440,DOWN,RIGHT,True,False,True,True,RIGHT,RIGHT
360,430,DOWN,RIGHT,False,True,True,True,LEFT,LEFT
40,210,EQUAL,LEFT,False,True,True,True,LEFT,LEFT
280,160,EQUAL,LEFT,True,True,False,True,DOWN,DOWN
120,50,UP,LEFT,True,True,True,False,UP,UP
30,440,DOWN,LEFT,False,True,True,True,LEFT,LEFT
290,50,UP,RIGHT,True,False,True,False,UP,UP
280,160,DOWN,RIGHT,True,True,True,False,UP,RIGHT
460,440,DOWN,RIGHT,True,True,True,False,UP,UP
100,50,UP,LEFT,False,True,True,True,LEFT,LEFT
280,160,UP,RIGHT,False,True,True,True,LEFT,LEFT
30,410,EQUAL,LEFT,False,True,True,False,LEFT,LEFT
10,460,DOWN,EQUAL,True,True,False,True,DOWN,DOWN
30,410,DOWN,LEFT,False,True,True,True,LEFT,LEFT
390,80,UP,RIGHT,True,True,True,False,UP,UP
400,20,EQUAL,RIGHT,True,False,True,True,RIGHT,RIGHT
270,380,UP,EQUAL,True,True,True,False,UP,UP
220,70,DOWN,RIGHT,True,True,True,False,UP,UP
40,400,DOWN,EQUAL,True,True,False,True,DOWN,DOWN
100,10,UP,RIGHT,True,True,True,False,UP,UP
120,80,UP,LEFT,True,False,True,False,UP,RIGHT
280,450,DOWN,LEFT,True,True,False,True,DOWN,DOWN
110,440,DOWN,LEFT,False,True,True,True,LEFT,LEFT
460,20,UP,RIGHT,True,False,True,True,RIGHT,RIGHT
370,230,DOWN,RIGHT,True,False,False,True,RIGHT,RIGHT
120,50,UP,LEFT,True,True,True,False,UP,UP
280,450,DOWN,LEFT,True,True,False,True,DOWN,DOWN
350,310,UP,RIGHT,True,False,True,True,RIGHT,RIGHT
30,410,UP,LEFT,True,False,True,True,RIGHT,RIGHT
100,50,UP,EQUAL,True,True,True,False,UP,UP
20,330,DOWN,LEFT,True,True,False,True,DOWN,DOWN
460,440,DOWN,RIGHT,True,False,True,True,RIGHT,RIGHT
310,120,UP,LEFT,True,True,True,False,UP,UP
220,70,DOWN,RIGHT,True,True,False,True,DOWN,DOWN
420,20,DOWN,RIGHT,True,False,False,True,RIGHT,RIGHT
80,410,DOWN,RIGHT,True,True,True,False,UP,UP
100,370,EQUAL,LEFT,False,True,True,True,LEFT,LEFT
400,20,UP,RIGHT,True,False,True,True,RIGHT,RIGHT
50,250,DOWN,LEFT,True,False,True,True,RIGHT,DOWN
40,240,DOWN,LEFT,False,True,True,True,LEFT,LEFT
30,410,DOWN,LEFT,False,True,True,True,LEFT,LEFT
390,80,UP,RIGHT,True,True,True,False,UP,UP
460,440,DOWN,RIGHT,True,True,False,True,DOWN,DOWN
320,270,UP,EQUAL,True,True,True,False,UP,UP
180,360,DOWN,EQUAL,True,True,False,True,DOWN,DOWN
260,150,DOWN,RIGHT,True,False,True,True,RIGHT,RIGHT
130,70,UP,RIGHT,True,True,True,False,UP,UP
150,260,EQUAL,LEFT,False,True,True,True,LEFT,LEFT
210,440,EQUAL,RIGHT,True,True,True,False,UP,UP
100,370,DOWN,LEFT,True,True,False,True,DOWN,DOWN
40,400,DOWN,LEFT,False,True,True,True,LEFT,LEFT
350,310,UP,EQUAL,True,True,True,False,UP,UP
220,70,DOWN,RIGHT,True,False,True,True,RIGHT,RIGHT
370,230,DOWN,EQUAL,True,True,False,True,DOWN,DOWN
460,20,UP,RIGHT,True,False,True,True,RIGHT,RIGHT
430,320,DOWN,RIGHT,True,False,True,True,RIGHT,RIGHT
130,10,UP,RIGHT,True,True,False,True,DOWN,DOWN
370,230,DOWN,EQUAL,True,True,False,True,DOWN,DOWN
100,50,UP,LEFT,False,True,True,True,LEFT,LEFT
100,370,EQUAL,LEFT,False,True,True,True,LEFT,LEFT
120,50,UP,LEFT,True,True,True,False,UP,UP
30,410,UP,EQUAL,True,False,True,True,RIGHT,RIGHT
50,250,DOWN,LEFT,True,True,False,True,DOWN,DOWN
30,410,UP,LEFT,True,False,True,True,RIGHT,RIGHT
370,230,DOWN,LEFT,True,True,True,False,UP,UP
120,80,UP,LEFT,True,True,False,True,DOWN,DOWN
30,410,DOWN,RIGHT,True,True,False,True,DOWN,DOWN
320,270,UP,RIGHT,True,False,True,False,RIGHT,RIGHT
80,410,DOWN,RIGHT,True,False,True,True,RIGHT,RIGHT
460,190,UP,RIGHT,True,False,True,True,RIGHT,RIGHT
390,170,UP,EQUAL,False,True,True,True,LEFT,UP
220,70,DOWN,RIGHT,True,False,True,True,RIGHT,RIGHT
120,50,UP,LEFT,True,True,True,False,UP,UP
390,80,UP,RIGHT,True,True,True,False,UP,UP
120,70,UP,LEFT,False,True,True,True,LEFT,LEFT
100,370,DOWN,LEFT,True,True,False,True,DOWN,DOWN
280,210,UP,EQUAL,True,True,True,False,UP,UP
430,320,DOWN,RIGHT,True,False,True,True,RIGHT,RIGHT
390,260,UP,RIGHT,True,False,True,True,RIGHT,RIGHT
370,230,DOWN,LEFT,True,True,True,False,UP,UP
80,410,DOWN,EQUAL,True,True,False,True,DOWN,DOWN
130,70,UP,RIGHT,True,True,True,False,UP,RIGHT
390,260,UP,RIGHT,False,True,True,True,LEFT,LEFT
390,170,DOWN,RIGHT,True,False,True,True,RIGHT,RIGHT
280,160,DOWN,RIGHT,True,False,True,True,RIGHT,RIGHT
220,70,UP,RIGHT,False,True,True,False,UP,UP
310,120,UP,RIGHT,False,True,True,True,LEFT,UP
300,330,EQUAL,RIGHT,True,False,True,True,RIGHT,RIGHT
40,210,UP,LEFT,True,True,True,False,UP,UP
400,20,UP,RIGHT,True,False,True,True,RIGHT,RIGHT
310,120,UP,LEFT,True,True,True,False,UP,UP
280,450,EQUAL,LEFT,False,True,True,True,LEFT,LEFT
380,200,UP,EQUAL,True,True,True,False,UP,UP
100,50,UP,EQUAL,True,True,True,False,UP,UP
340,300,UP,LEFT,False,True,True,True,LEFT,LEFT
390,80,UP,RIGHT,True,True,True,False,UP,UP
120,70,UP,EQUAL,True,True,True,False,UP,UP
150,260,EQUAL,LEFT,False,True,True,True,LEFT,LEFT
10,110,UP,EQUAL,False,True,True,False,UP,UP
150,260,EQUAL,EQUAL,True,True,True,False,UP,UP
170,100,UP,LEFT,True,True,True,False,UP,UP
40,240,DOWN,LEFT,False,True,True,True,LEFT,LEFT
180,280,EQUAL,LEFT,False,True,True,True,LEFT,LEFT
100,50,UP,LEFT,True,True,True,False,UP,UP
460,440,DOWN,RIGHT,True,True,False,True,DOWN,DOWN
310,120,UP,RIGHT,True,True,True,False,UP,UP
390,260,UP,RIGHT,False,True,True,True,LEFT,LEFT
170,100,UP,LEFT,True,True,True,False,UP,UP
460,440,DOWN,RIGHT,True,False,True,True,RIGHT,RIGHT
260,150,UP,RIGHT,True,True,False,True,DOWN,DOWN
180,80,EQUAL,RIGHT,True,True,False,True,DOWN,RIGHT
10,110,UP,LEFT,True,True,False,True,DOWN,DOWN
390,80,UP,RIGHT,True,True,True,False,UP,UP
210,440,UP,RIGHT,False,True,True,True,LEFT,LEFT
50,250,DOWN,LEFT,True,False,True,True,RIGHT,RIGHT
460,20,UP,EQUAL,True,True,True,False,UP,UP
80,410,DOWN,RIGHT,True,True,True,False,UP,UP
100,50,UP,LEFT,True,True,True,False,UP,UP
100,50,UP,EQUAL,False,True,True,True,LEFT,UP
420,20,DOWN,RIGHT,True,False,False,True,RIGHT,RIGHT
190,190,DOWN,EQUAL,False,True,True,True,LEFT,LEFT
220,70,DOWN,RIGHT,True,True,False,True,DOWN,DOWN
100,370,EQUAL,LEFT,False,True,True,True,LEFT,LEFT
160,420,DOWN,EQUAL,True,True,False,True,DOWN,LEFT
370,230,DOWN,EQUAL,True,True,False,True,DOWN,DOWN
280,160,EQUAL,EQUAL,True,True,True,False,UP,UP
270,380,UP,RIGHT,True,False,True,True,RIGHT,RIGHT
130,70,UP,RIGHT,True,True,True,False,UP,UP
150,260,EQUAL,LEFT,True,True,False,True,DOWN,LEFT
100,370,EQUAL,LEFT,False,True,True,True,LEFT,LEFT
100,50,UP,LEFT,True,True,True,False,UP,UP
10,110,DOWN,LEFT,True,True,False,True,DOWN,DOWN
390,80,UP,RIGHT,True,True,True,False,UP,UP
460,20,UP,RIGHT,True,False,True,True,RIGHT,RIGHT
130,10,UP,RIGHT,True,False,True,True,RIGHT,RIGHT
320,270,UP,RIGHT,True,False,True,False,RIGHT,RIGHT
210,440,DOWN,RIGHT,True,True,True,False,UP,UP
430,320,DOWN,RIGHT,True,False,True,True,RIGHT,RIGHT
130,10,UP,LEFT,True,True,True,False,UP,UP
30,410,DOWN,LEFT,True,True,True,False,UP,LEFT
320,270,UP,RIGHT,True,False,True,False,RIGHT,RIGHT
340,300,DOWN,LEFT,True,True,False,True,DOWN,DOWN
430,320,DOWN,RIGHT,True,False,True,True,RIGHT,RIGHT
110,440,DOWN,LEFT,True,True,False,True,DOWN,DOWN
430,320,DOWN,RIGHT,True,False,True,True,RIGHT,RIGHT
150,260,EQUAL,LEFT,False,True,True,True,LEFT,LEFT
390,260,UP,RIGHT,True,False,True,True,RIGHT,RIGHT
20,330,DOWN,LEFT,True,True,False,True,DOWN,DOWN
220,70,EQUAL,RIGHT,True,False,True,True,RIGHT,RIGHT
280,160,EQUAL,RIGHT,True,True,True,False,UP,UP
460,20,EQUAL,EQUAL,True,True,True,False,UP,UP
260,150,DOWN,RIGHT,True,False,True,True,RIGHT,RIGHT
100,50,UP,LEFT,False,True,True,True,LEFT,LEFT
150,260,EQUAL,LEFT,False,True,True,True,LEFT,LEFT
80,410,DOWN,RIGHT,True,True,False,True,DOWN,RIGHT
160,420,DOWN,RIGHT,True,True,False,True,DOWN,DOWN
460,20,UP,RIGHT,True,False,True,True,RIGHT,RIGHT
210,440,DOWN,RIGHT,True,False,True,True,RIGHT,RIGHT
460,20,UP,EQUAL,True,True,True,False,UP,UP
130,10,UP,RIGHT,True,False,True,True,RIGHT,RIGHT
40,240,DOWN,LEFT,False,True,True,True,LEFT,LEFT
460,440,DOWN,RIGHT,True,False,True,True,RIGHT,RIGHT
280,160,DOWN,RIGHT,True,True,False,True,DOWN,DOWN
370,230,DOWN,LEFT,False,True,True,True,LEFT,LEFT
20,330,EQUAL,LEFT,False,True,True,True,LEFT,LEFT
440,80,EQUAL,RIGHT,True,False,True,True,RIGHT,RIGHT
100,50,UP,LEFT,False,True,True,True,LEFT,LEFT
30,410,EQUAL,LEFT,False,True,True,False,LEFT,LEFT
220,70,EQUAL,RIGHT,True,False,True,True,RIGHT,RIGHT
40,240,DOWN,LEFT,False,True,True,True,LEFT,LEFT
40,240,UP,LEFT,True,True,True,False,UP,UP
280,160,UP,RIGHT,False,True,True,True,LEFT,LEFT
380,200,UP,EQUAL,True,True,True,False,UP,UP
400,20,UP,RIGHT,True,True,False,True,DOWN,RIGHT
460,20,UP,RIGHT,True,True,True,False,UP,UP
370,230,DOWN,EQUAL,True,True,False,True,DOWN,DOWN
360,430,DOWN,RIGHT,False,True,True,True,LEFT,LEFT
150,260,EQUAL,LEFT,False,True,True,True,LEFT,LEFT
270,380,UP,RIGHT,True,False,True,True,RIGHT,RIGHT
100,50,UP,LEFT,True,True,True,False,UP,UP
120,70,UP,LEFT,False,True,True,True,LEFT,LEFT
130,10,UP,RIGHT,True,True,False,True,DOWN,DOWN
460,20,UP,RIGHT,True,False,True,True,RIGHT,RIGHT
100,10,UP,RIGHT,True,True,True,False,UP,UP
390,260,UP,RIGHT,True,True,True,False,UP,UP
210,440,DOWN,RIGHT,True,True,True,False,UP,UP
120,70,UP,LEFT,False,True,True,True,LEFT,LEFT
460,440,DOWN,RIGHT,True,False,True,True,RIGHT,RIGHT
450,270,DOWN,EQUAL,True,True,False,True,DOWN,DOWN
370,230,DOWN,RIGHT,True,False,False,True,RIGHT,RIGHT
450,270,DOWN,RIGHT,True,False,True,True,RIGHT,RIGHT
400,20,UP,RIGHT,True,True,True,False,UP,UP
40,400,DOWN,EQUAL,True,True,False,True,DOWN,DOWN
290,50,UP,EQUAL,True,True,True,False,UP,UP
30,410,EQUAL,EQUAL,True,True,True,False,UP,UP
290,50,UP,RIGHT,True,False,True,True,RIGHT,RIGHT
120,50,EQUAL,LEFT,True,True,False,True,DOWN,LEFT
460,190,UP,RIGHT,True,False,True,True,RIGHT,RIGHT
100,10,UP,RIGHT,True,True,True,False,UP,UP
180,80,DOWN,RIGHT,True,True,False,True,DOWN,DOWN
320,270,UP,EQUAL,True,True,True,False,UP,UP
10,110,DOWN,LEFT,False,True,True,True,LEFT,LEFT
170,100,UP,RIGHT,True,True,False,True,DOWN,RIGHT
190,190,DOWN,RIGHT,True,True,False,True,DOWN,DOWN
400,20,DOWN,RIGHT,True,False,True,True,RIGHT,RIGHT
120,50,UP,LEFT,True,True,True,False,UP,UP
150,260,EQUAL,LEFT,False,True,True,True,LEFT,LEFT
160,420,DOWN,RIGHT,True,True,False,True,DOWN,DOWN
40,240,UP,LEFT,True,False,True,True,RIGHT,RIGHT
180,280,EQUAL,LEFT,False,True,True,True,LEFT,LEFT
150,260,DOWN,LEFT,False,True,True,True,LEFT,DOWN
280,160,DOWN,LEFT,True,True,False,True,DOWN,DOWN
120,80,UP,LEFT,True,True,False,True,DOWN,DOWN
40,240,DOWN,LEFT,False,True,True,True,LEFT,LEFT
380,200,UP,EQUAL,True,True,True,False,UP,UP
100,10,UP,LEFT,True,True,False,True,DOWN,DOWN
280,160,DOWN,RIGHT,True,False,True,True,RIGHT,RIGHT
40,400,DOWN,EQUAL,True,True,False,True,DOWN,DOWN
360,430,DOWN,LEFT,True,True,False,True,DOWN,DOWN
280,450,EQUAL,LEFT,False,True,True,True,LEFT,LEFT
160,410,UP,LEFT,True,True,False,True,DOWN,LEFT
400,20,UP,RIGHT,True,True,True,False,UP,UP
460,190,UP,RIGHT,True,False,True,True,RIGHT,RIGHT
20,330,EQUAL,LEFT,False,True,True,True,LEFT,LEFT
350,310,EQUAL,EQUAL,True,False,True,True,RIGHT,RIGHT
460,190,UP,RIGHT,True,False,True,True,RIGHT,RIGHT
10,110,UP,LEFT,True,True,False,True,DOWN,DOWN
210,440,UP,RIGHT,False,True,True,True,LEFT,LEFT
40,210,EQUAL,LEFT,False,True,True,True,LEFT,LEFT
120,50,EQUAL,LEFT,True,True,True,False,UP,UP
50,250,UP,LEFT,False,True,True,True,LEFT,LEFT
290,50,UP,EQUAL,True,True,True,False,UP,UP
280,160,DOWN,RIGHT,True,True,False,True,DOWN,DOWN
80,410,DOWN,LEFT,False,True,True,True,LEFT,LEFT
390,170,DOWN,RIGHT,True,False,True,True,RIGHT,RIGHT
190,190,DOWN,RIGHT,True,True,False,True,DOWN,DOWN
300,330,EQUAL,RIGHT,True,False,True,True,RIGHT,RIGHT
460,440,DOWN,RIGHT,True,True,False,True,DOWN,DOWN
160,410,DOWN,RIGHT,True,False,True,True,RIGHT,RIGHT
310,120,UP,LEFT,True,True,True,False,UP,UP
210,440,DOWN,RIGHT,True,False,True,True,RIGHT,RIGHT
100,370,DOWN,LEFT,True,True,False,True,DOWN,DOWN
340,300,DOWN,LEFT,True,True,False,True,DOWN,DOWN
30,410,UP,LEFT,True,False,True,True,RIGHT,RIGHT
20,330,EQUAL,LEFT,False,True,True,True,LEFT,LEFT
460,440,DOWN,RIGHT,True,False,True,True,RIGHT,RIGHT
290,50,UP,RIGHT,True,False,True,False,UP,UP
50,250,DOWN,LEFT,True,True,False,True,DOWN,DOWN
30,440,DOWN,EQUAL,True,True,False,True,DOWN,DOWN
50,250,DOWN,LEFT,True,True,False,True,DOWN,DOWN
310,120,EQUAL,RIGHT,True,True,True,False,UP,UP
320,270,UP,RIGHT,True,False,True,False,RIGHT,RIGHT
50,250,DOWN,LEFT,True,True,False,True,DOWN,DOWN
180,80,EQUAL,RIGHT,True,False,True,True,RIGHT,RIGHT
390,170,DOWN,RIGHT,True,False,True,True,RIGHT,RIGHT
370,230,DOWN,LEFT,False,True,True,True,LEFT,LEFT
420,20,DOWN,EQUAL,True,True,False,True,DOWN,DOWN
350,310,UP,RIGHT,True,False,True,True,RIGHT,RIGHT
130,70,UP,RIGHT,True,True,True,False,UP,RIGHT
370,230,DOWN,LEFT,True,True,True,False,UP,UP
310,120,UP,LEFT,True,True,True,False,UP,UP
10,110,UP,LEFT,True,True,False,True,DOWN,DOWN
30,410,DOWN,LEFT,False,True,True,True,LEFT,LEFT
320,270,UP,EQUAL,True,True,True,False,UP,UP
210,440,EQUAL,RIGHT,True,True,False,True,DOWN,RIGHT
440,370,DOWN,RIGHT,True,False,True,True,RIGHT,RIGHT
210,440,DOWN,RIGHT,True,False,True,True,RIGHT,RIGHT
40,240,UP,LEFT,True,True,True,False,UP,UP
270,120,DOWN,RIGHT,True,False,True,True,RIGHT,RIGHT
160,410,DOWN,RIGHT,True,False,True,True,RIGHT,RIGHT
460,190,UP,EQUAL,True,True,True,False,UP,UP
160,420,DOWN,LEFT,False,True,True,True,LEFT,LEFT
320,270,UP,RIGHT,True,False,True,False,RIGHT,RIGHT
460,440,DOWN,RIGHT,True,True,True,False,UP,RIGHT
370,230,DOWN,RIGHT,True,False,False,True,RIGHT,RIGHT
80,410,DOWN,EQUAL,True,True,False,True,DOWN,DOWN
190,190,DOWN,RIGHT,True,True,False,True,DOWN,DOWN
270,380,UP,RIGHT,True,False,True,True,RIGHT,RIGHT
170,100,DOWN,LEFT,False,True,True,True,LEFT,LEFT
390,80,DOWN,RIGHT,True,False,True,True,RIGHT,RIGHT
110,440,DOWN,RIGHT,True,True,False,True,DOWN,DOWN
10,460,DOWN,EQUAL,True,True,False,True,DOWN,DOWN
190,190,DOWN,LEFT,False,True,True,True,LEFT,LEFT
370,330,DOWN,EQUAL,True,True,False,True,DOWN,DOWN
100,10,UP,RIGHT,True,True,True,False,UP,UP
280,160,DOWN,RIGHT,True,False,True,True,RIGHT,RIGHT
380,200,UP,EQUAL,True,True,True,False,UP,UP
160,420,DOWN,RIGHT,True,True,False,True,DOWN,DOWN
160,420,DOWN,LEFT,False,True,True,True,LEFT,LEFT
310,120,DOWN,RIGHT,True,True,True,False,UP,UP
170,100,UP,EQUAL,True,True,True,False,UP,UP
170,100,UP,LEFT,True,True,True,False,UP,UP
80,410,DOWN,LEFT,False,True,True,True,LEFT,LEFT
40,240,UP,LEFT,True,True,True,False,UP,UP
130,10,DOWN,LEFT,False,True,False,True,LEFT,LEFT
130,10,UP,EQUAL,True,False,True,True,RIGHT,UP
20,330,EQUAL,LEFT,False,True,True,True,LEFT,LEFT
260,150,UP,RIGHT,True,True,True,False,UP,UP
390,80,DOWN,RIGHT,True,False,True,True,RIGHT,RIGHT
160,410,DOWN,LEFT,True,True,False,True,DOWN,DOWN
370,230,DOWN,RIGHT,True,True,False,True,DOWN,DOWN
310,120,UP,RIGHT,True,True,True,False,UP,RIGHT
320,270,UP,RIGHT,True,False,True,False,RIGHT,RIGHT
40,400,DOWN,LEFT,False,True,True,True,LEFT,LEFT
220,360,UP,RIGHT,True,False,True,True,RIGHT,RIGHT
440,80,EQUAL,RIGHT,True,False,True,True,RIGHT,RIGHT
280,160,EQUAL,RIGHT,True,False,True,True,RIGHT,RIGHT
310,120,DOWN,RIGHT,True,True,True,False,UP,UP
260,150,UP,RIGHT,True,True,True,False,UP,UP
190,190,DOWN,LEFT,False,True,True,True,LEFT,LEFT
40,210,EQUAL,LEFT,False,True,True,True,LEFT,LEFT
120,70,UP,EQUAL,True,True,True,False,UP,UP
30,410,EQUAL,RIGHT,True,True,False,True,DOWN,DOWN
50,250,DOWN,LEFT,True,True,False,True,DOWN,DOWN
30,440,DOWN,EQUAL,True,True,False,True,DOWN,DOWN
80,410,DOWN,EQUAL,True,True,False,True,DOWN,DOWN
20,330,DOWN,LEFT,True,True,False,True,DOWN,DOWN
460,20,UP,RIGHT,True,True,True,False,UP,UP
100,10,UP,RIGHT,True,True,True,False,UP,UP
40,210,EQUAL,LEFT,False,True,True,True,LEFT,LEFT
280,160,DOWN,RIGHT,True,True,False,True,DOWN,DOWN
30,410,DOWN,RIGHT,True,True,False,True,DOWN,DOWN
40,210,EQUAL,LEFT,False,True,True,True,LEFT,LEFT
430,320,DOWN,RIGHT,True,False,True,True,RIGHT,RIGHT
50,250,UP,LEFT,False,True,True,True,LEFT,LEFT
400,20,UP,RIGHT,True,True,True,False,UP,UP
180,360,DOWN,EQUAL,True,True,False,True,DOWN,DOWN
100,370,DOWN,LEFT,True,False,True,True,RIGHT,RIGHT
80,410,DOWN,LEFT,False,True,True,True,LEFT,LEFT
40,240,DOWN,LEFT,False,True,True,True,LEFT,LEFT
100,10,DOWN,EQUAL,True,False,False,True,RIGHT,RIGHT
390,80,UP,RIGHT,True,True,True,False,UP,UP
460,440,DOWN,RIGHT,True,False,True,True,RIGHT,RIGHT
280,160,DOWN,RIGHT,True,False,True,True,RIGHT,RIGHT
160,420,DOWN,RIGHT,True,True,False,True,DOWN,DOWN
460,440,DOWN,RIGHT,True,False,True,True,RIGHT,RIGHT
310,120,DOWN,RIGHT,True,True,True,False,UP,UP
120,50,DOWN,LEFT,True,True,True,False,UP,LEFT
210,440,UP,RIGHT,False,True,True,True,LEFT,LEFT
220,70,EQUAL,RIGHT,True,False,True,True,RIGHT,RIGHT
60,180,DOWN,LEFT,True,True,True,False,UP,UP
460,440,DOWN,RIGHT,True,False,True,True,RIGHT,RIGHT
460,440,DOWN,RIGHT,True,False,True,True,RIGHT,RIGHT
160,420,DOWN,RIGHT,True,True,False,True,DOWN,DOWN
50,250,DOWN,LEFT,True,True,False,True,DOWN,DOWN
40,240,EQUAL,LEFT,False,True,True,True,LEFT,LEFT
390,170,UP,LEFT,True,True,False,True,DOWN,DOWN
270,380,UP,EQUAL,True,True,True,False,UP,UP
100,50,UP,EQUAL,True,True,True,False,UP,UP
80,410,DOWN,RIGHT,True,True,True,False,UP,RIGHT
170,100,DOWN,EQUAL,False,True,True,True,LEFT,LEFT
370,230,UP,LEFT,True,False,True,True,RIGHT,UP
350,310,UP,RIGHT,True,False,True,True,RIGHT,RIGHT
30,410,EQUAL,LEFT,False,True,True,False,LEFT,LEFT
100,370,DOWN,LEFT,True,True,False,True,DOWN,DOWN
30,410,UP,LEFT,True,False,True,True,RIGHT,RIGHT
280,210,UP,LEFT,True,True,False,True,DOWN,DOWN
210,440,EQUAL,LEFT,True,True,False,True,DOWN,DOWN
30,440,DOWN,LEFT,False,True,True,True,LEFT,LEFT
340,300,DOWN,LEFT,True,True,False,True,DOWN,DOWN
220,360,UP,RIGHT,True,False,True,True,RIGHT,RIGHT
370,230,UP,LEFT,True,False,True,True,RIGHT,RIGHT
210,440,DOWN,RIGHT,True,False,True,True,RIGHT,RIGHT
460,190,UP,RIGHT,True,False,True,True,RIGHT,RIGHT
80,410,DOWN,LEFT,True,False,True,True,RIGHT,RIGHT
320,270,UP,RIGHT,True,False,True,False,RIGHT,RIGHT
300,330,UP,RIGHT,True,True,True,False,UP,UP
460,440,DOWN,RIGHT,True,True,False,True,DOWN,DOWN
440,80,UP,RIGHT,True,True,True,False,UP,UP
180,80,DOWN,RIGHT,False,True,True,True,LEFT,LEFT
160,420,DOWN,LEFT,False,True,True,True,LEFT,LEFT
160,420,DOWN,LEFT,True,True,True,False,UP,UP
340,300,DOWN,LEFT,True,True,False,True,DOWN,DOWN
460,190,UP,RIGHT,True,False,True,True,RIGHT,RIGHT
390,80,DOWN,EQUAL,True,True,False,True,DOWN,DOWN
50,250,UP,LEFT,True,True,False,True,DOWN,LEFT
320,270,UP,RIGHT,True,False,True,False,RIGHT,RIGHT
10,110,DOWN,LEFT,False,True,True,True,LEFT,DOWN
280,210,UP,LEFT,False,True,True,True,LEFT,LEFT
100,10,DOWN,RIGHT,True,False,False,True,RIGHT,RIGHT
180,280,UP,LEFT,True,True,True,False,UP,UP
10,460,DOWN,EQUAL,True,True,False,True,DOWN,DOWN
280,160,DOWN,RIGHT,True,False,True,True,RIGHT,RIGHT
350,310,UP,RIGHT,True,False,True,True,RIGHT,RIGHT
390,260,UP,LEFT,False,True,True,True,LEFT,LEFT
30,440,DOWN,LEFT,False,True,True,True,LEFT,LEFT
160,420,DOWN,LEFT,False,True,True,True,LEFT,LEFT
370,330,DOWN,EQUAL,True,True,False,True,DOWN,DOWN
460,440,DOWN,RIGHT,True,True,False,True,DOWN,DOWN
180,360,DOWN,EQUAL,True,True,False,True,DOWN,DOWN
310,120,EQUAL,EQUAL,False,True,True,True,LEFT,LEFT
360,430,DOWN,LEFT,True,True,False,True,DOWN,DOWN
460,440,DOWN,RIGHT,True,True,False,True,DOWN,DOWN
340,300,DOWN,LEFT,True,True,False,True,DOWN,DOWN
40,400,DOWN,LEFT,False,True,True,True,LEFT,LEFT
460,440,DOWN,RIGHT,True,True,False,True,DOWN,DOWN
270,380,UP,RIGHT,True,False,True,True,RIGHT,RIGHT
10,110,EQUAL,EQUAL,False,True,True,True,LEFT,LEFT
400,20,UP,RIGHT,True,True,True,False,UP,UP
390,260,UP,EQUAL,False,True,True,True,LEFT,LEFT
100,10,UP,RIGHT,True,True,True,False,UP,UP
40,240,UP,LEFT,True,True,True,False,UP,UP
420,20,DOWN,RIGHT,True,False,False,True,RIGHT,RIGHT
50,250,UP,EQUAL,False,True,True,True,LEFT,UP
50,250,EQUAL,LEFT,True,True,False,True,DOWN,DOWN
30,440,DOWN,LEFT,False,True,True,True,LEFT,LEFT
120,50,UP,LEFT,True,True,True,False,UP,UP
380,200,UP,EQUAL,True,True,True,False,UP,UP
460,440,DOWN,RIGHT,True,True,False,True,DOWN,DOWN
380,200,UP,EQUAL,True,True,True,False,UP,UP
110,440,DOWN,RIGHT,False,True,True,True,LEFT,DOWN
160,420,DOWN,RIGHT,True,True,False,True,DOWN,RIGHT
430,320,DOWN,EQUAL,True,False,True,True,RIGHT,DOWN
80,410,DOWN,LEFT,True,True,False,True,DOWN,DOWN
370,230,DOWN,LEFT,True,True,True,False,UP,UP
430,320,DOWN,RIGHT,True,False,True,True,RIGHT,RIGHT
460,190,UP,RIGHT,True,False,True,True,RIGHT,RIGHT
280,160,DOWN,RIGHT,True,False,True,True,RIGHT,RIGHT
340,300,UP,LEFT,False,True,True,True,LEFT,LEFT
40,240,DOWN,LEFT,False,True,True,True,LEFT,LEFT
460,440,DOWN,RIGHT,True,False,True,True,RIGHT,RIGHT
320,270,UP,RIGHT,True,False,True,False,RIGHT,RIGHT
120,50,UP,LEFT,True,True,True,False,UP,UP
110,440,DOWN,RIGHT,True,False,True,True,RIGHT,RIGHT
290,50,UP,EQUAL,True,True,True,False,UP,UP
10,460,DOWN,EQUAL,True,True,False,True,DOWN,DOWN
10,110,DOWN,LEFT,True,True,False,True,DOWN,DOWN
430,320,DOWN,RIGHT,True,False,True,True,RIGHT,RIGHT
100,50,UP,LEFT,True,True,True,False,UP,UP
290,50,UP,RIGHT,True,False,True,True,RIGHT,RIGHT
370,330,DOWN,EQUAL,True,True,False,True,DOWN,DOWN
130,70,UP,RIGHT,True,False,True,True,RIGHT,UP
390,80,UP,RIGHT,True,True,True,False,UP,UP
320,270,UP,RIGHT,True,False,True,False,RIGHT,RIGHT
180,280,EQUAL,LEFT,False,True,True,True,LEFT,LEFT
100,370,DOWN,LEFT,True,True,False,True,DOWN,DOWN
30,410,DOWN,LEFT,False,True,True,True,LEFT,LEFT
360,430,DOWN,RIGHT,False,True,True,True,LEFT,LEFT
180,360,DOWN,EQUAL,True,True,False,True,DOWN,DOWN
220,360,UP,RIGHT,True,False,True,True,RIGHT,RIGHT
30,410,DOWN,RIGHT,True,True,False,True,DOWN,DOWN
40,240,DOWN,LEFT,False,True,True,True,LEFT,LEFT
170,100,UP,LEFT,True,True,True,False,UP,UP
100,370,EQUAL,LEFT,False,True,True,True,LEFT,LEFT
280,450,DOWN,LEFT,True,True,False,True,DOWN,DOWN
340,300,UP,LEFT,True,True,False,True,DOWN,LEFT
260,150,UP,RIGHT,True,True,False,True,DOWN,DOWN
30,440,DOWN,LEFT,False,True,True,True,LEFT,LEFT
50,250,UP,LEFT,False,True,True,True,LEFT,LEFT
20,330,EQUAL,LEFT,False,True,True,True,LEFT,LEFT
190,190,DOWN,LEFT,False,True,True,True,LEFT,LEFT
180,360,DOWN,RIGHT,True,False,True,True,RIGHT,RIGHT
190,190,DOWN,LEFT,False,True,True,True,LEFT,LEFT
40,240,UP,LEFT,True,True,True,False,UP,UP
160,420,DOWN,RIGHT,True,True,False,True,DOWN,DOWN
390,260,UP,RIGHT,False,True,True,True,LEFT,LEFT
400,20,UP,RIGHT,True,True,True,False,UP,UP
160,420,DOWN,LEFT,False,True,True,True,LEFT,LEFT
360,430,DOWN,LEFT,True,True,False,True,DOWN,DOWN
460,190,UP,RIGHT,True,False,True,True,RIGHT,RIGHT
390,260,UP,RIGHT,False,True,True,True,LEFT,LEFT
100,370,DOWN,LEFT,True,True,False,True,DOWN,DOWN
160,410,DOWN,RIGHT,True,False,True,True,RIGHT,DOWN
390,170,DOWN,LEFT,True,False,True,True,RIGHT,DOWN
130,70,UP,RIGHT,True,True,True,False,UP,UP
350,310,UP,RIGHT,True,False,True,True,RIGHT,RIGHT
400,20,UP,RIGHT,True,True,True,False,UP,UP
100,10,UP,RIGHT,True,True,True,False,UP,UP
430,320,DOWN,RIGHT,True,True,False,True,DOWN,DOWN
10,110,DOWN,LEFT,True,True,False,True,DOWN,DOWN
390,80,UP,RIGHT,True,True,True,False,UP,UP
450,270,DOWN,EQUAL,True,False,True,True,RIGHT,DOWN
130,10,UP,RIGHT,True,True,False,True,DOWN,DOWN
40,210,EQUAL,LEFT,False,True,True,True,LEFT,LEFT
270,380,UP,RIGHT,True,True,False,True,DOWN,DOWN
460,190,UP,RIGHT,True,False,True,True,RIGHT,RIGHT
40,400,DOWN,LEFT,False,True,True,True,LEFT,LEFT
40,240,EQUAL,EQUAL,True,False,False,True,RIGHT,RIGHT
30,410,UP,LEFT,True,False,True,True,RIGHT,RIGHT
120,80,UP,LEFT,True,True,False,True,DOWN,DOWN
20,330,EQUAL,LEFT,False,True,True,True,LEFT,LEFT
80,410,DOWN,LEFT,False,True,True,True,LEFT,LEFT
460,440,DOWN,RIGHT,True,True,False,True,DOWN,DOWN
300,330,UP,RIGHT,True,True,True,False,UP,UP
100,10,UP,RIGHT,True,True,True,False,UP,UP
160,420,DOWN,RIGHT,True,True,False,True,DOWN,DOWN
180,80,EQUAL,RIGHT,True,False,True,True,RIGHT,RIGHT
180,280,EQUAL,EQUAL,True,True,True,False,UP,UP
430,320,DOWN,RIGHT,True,False,True,True,RIGHT,RIGHT
20,330,DOWN,LEFT,True,True,False,True,DOWN,DOWN
280,450,DOWN,LEFT,True,True,False,True,DOWN,DOWN
360,430,DOWN,LEFT,True,True,False,True,DOWN,DOWN
360,430,DOWN,LEFT,True,True,False,True,DOWN,DOWN
400,20,UP,RIGHT,True,True,True,False,UP,UP
460,440,DOWN,RIGHT,True,False,True,True,RIGHT,RIGHT
170,100,UP,LEFT,True,True,True,False,UP,UP
210,440,DOWN,RIGHT,True,True,True,False,UP,RIGHT
100,10,UP,RIGHT,True,True,True,False,UP,UP
30,440,DOWN,EQUAL,False,True,True,True,LEFT,DOWN
100,50,UP,LEFT,True,True,True,False,UP,UP
170,100,EQUAL,LEFT,True,True,True,False,UP,UP
340,300,DOWN,LEFT,True,True,False,True,DOWN,DOWN
460,190,UP,RIGHT,True,False,True,True,RIGHT,RIGHT
160,420,DOWN,RIGHT,True,False,True,True,RIGHT,DOWN
310,120,DOWN,RIGHT,True,True,True,False,UP,UP
290,50,UP,EQUAL,True,True,True,False,UP,UP
450,270,DOWN,EQUAL,True,True,False,True,DOWN,DOWN
30,440,DOWN,LEFT,True,True,False,True,DOWN,DOWN
20,330,DOWN,LEFT,True,True,False,True,DOWN,DOWN
400,20,EQUAL,RIGHT,True,False,True,True,RIGHT,RIGHT
440,80,UP,RIGHT,True,True,True,False,UP,UP
190,190,DOWN,EQUAL,True,True,False,True,DOWN,DOWN
390,260,UP,EQUAL,True,True,True,False,UP,UP
30,440,DOWN,LEFT,False,True,True,True,LEFT,LEFT
210,440,DOWN,RIGHT,True,True,False,True,DOWN,DOWN
180,80,DOWN,RIGHT,True,True,False,True,DOWN,DOWN
430,320,DOWN,RIGHT,True,False,True,True,RIGHT,RIGHT
390,260,UP,RIGHT,True,True,True,False,UP,UP
260,150,UP,RIGHT,True,False,True,True,RIGHT,RIGHT
400,20,DOWN,RIGHT,True,False,True,True,RIGHT,RIGHT
360,430,EQUAL,RIGHT,True,False,False,True,RIGHT,RIGHT
40,240,UP,LEFT,True,True,True,False,UP,UP
310,120,UP,LEFT,True,True,True,False,UP,UP
290,50,UP,RIGHT,True,False,True,True,RIGHT,RIGHT
40,400,DOWN,LEFT,False,True,True,True,LEFT,LEFT
150,260,EQUAL,LEFT,False,True,True,True,LEFT,LEFT
370,230,DOWN,RIGHT,False,True,True,True,LEFT,LEFT
280,450,EQUAL,LEFT,False,True,True,True,LEFT,LEFT
40,400,DOWN,LEFT,False,True,True,True,LEFT,LEFT
160,410,EQUAL,RIGHT,True,True,False,False,DOWN,RIGHT
390,80,EQUAL,RIGHT,True,True,True,False,UP,UP
130,70,UP,RIGHT,True,True,True,False,UP,UP
20,330,EQUAL,LEFT,False,True,True,True,LEFT,LEFT
290,50,UP,RIGHT,True,False,True,True,RIGHT,RIGHT
160,410,UP,LEFT,False,True,True,True,LEFT,LEFT
340,300,UP,LEFT,False,True,True,True,LEFT,LEFT
280,210,UP,EQUAL,True,True,True,False,UP,UP
180,360,DOWN,EQUAL,True,True,False,True,DOWN,DOWN
180,280,EQUAL,LEFT,False,True,True,True,LEFT,LEFT
130,10,DOWN,LEFT,False,True,False,True,LEFT,LEFT
160,420,DOWN,RIGHT,True,True,False,True,DOWN,DOWN
220,360,UP,EQUAL,True,True,True,False,UP,UP
460,440,DOWN,RIGHT,True,False,True,True,RIGHT,RIGHT
120,50,DOWN,LEFT,False,True,True,True,LEFT,LEFT
400,20,EQUAL,RIGHT,True,False,True,True,RIGHT,RIGHT
360,430,DOWN,LEFT,True,True,False,True,DOWN,DOWN
120,50,DOWN,LEFT,False,True,True,True,LEFT,LEFT
390,260,UP,EQUAL,True,True,True,False,UP,UP
10,460,DOWN,LEFT,False,True,True,True,LEFT,LEFT
130,70,UP,EQUAL,True,True,True,False,UP,UP
160,410,EQUAL,RIGHT,True,True,True,False,UP,UP
290,50,UP,RIGHT,True,False,True,True,RIGHT,RIGHT
390,80,EQUAL,EQUAL,True,False,True,False,RIGHT,UP
460,440,DOWN,RIGHT,True,False,True,True,RIGHT,RIGHT
40,210,EQUAL,LEFT,False,True,True,True,LEFT,LEFT
150,260,DOWN,LEFT,True,True,False,True,DOWN,DOWN
400,20,UP,RIGHT,True,True,True,False,UP,UP
160,420,DOWN,RIGHT,True,True,False,True,DOWN,DOWN
390,170,UP,LEFT,True,True,False,True,DOWN,LEFT
40,210,UP,LEFT,True,True,True,False,UP,UP
360,430,EQUAL,RIGHT,True,False,False,True,RIGHT,RIGHT
180,360,DOWN,RIGHT,True,False,True,True,RIGHT,RIGHT
390,80,DOWN,RIGHT,True,False,True,True,RIGHT,RIGHT
390,260,UP,LEFT,False,True,True,True,LEFT,LEFT
290,50,UP,EQUAL,True,True,True,False,UP,UP
290,50,UP,RIGHT,True,False,True,True,RIGHT,RIGHT
360,430,DOWN,LEFT,True,True,False,True,DOWN,DOWN
30,410,EQUAL,LEFT,False,True,True,False,LEFT,LEFT
40,400,DOWN,LEFT,False,True,True,True,LEFT,LEFT
160,420,DOWN,RIGHT,True,True,False,True,DOWN,DOWN
40,400,DOWN,LEFT,False,True,True,True,LEFT,LEFT
10,110,DOWN,LEFT,True,True,False,True,DOWN,DOWN
10,460,DOWN,EQUAL,True,True,False,True,DOWN,DOWN
370,230,DOWN,RIGHT,True,False,False,True,RIGHT,RIGHT
100,10,UP,LEFT,True,True,False,True,DOWN,DOWN
180,280,EQUAL,LEFT,False,True,True,True,LEFT,LEFT
340,300,DOWN,LEFT,True,True,False,True,DOWN,DOWN
30,410,UP,LEFT,True,False,True,True,RIGHT,RIGHT
40,400,DOWN,LEFT,False,True,True,True,LEFT,LEFT
210,440,DOWN,RIGHT,True,True,True,False,UP,UP
10,110,DOWN,LEFT,False,True,True,True,LEFT,LEFT
30,440,DOWN,EQUAL,True,True,False,True,DOWN,DOWN
180,80,EQUAL,RIGHT,True,False,True,True,RIGHT,RIGHT
180,360,DOWN,EQUAL,True,True,False,True,DOWN,DOWN
120,70,UP,EQUAL,False,True,True,True,LEFT,UP
290,50,EQUAL,EQUAL,False,False,True,False,LEFT,UP
390,80,DOWN,RIGHT,True,False,True,True,RIGHT,RIGHT
460,440,DOWN,RIGHT,False,True,True,True,LEFT,UP
50,250,DOWN,LEFT,True,True,False,True,DOWN,DOWN
390,170,DOWN,LEFT,True,True,False,True,DOWN,DOWN
270,380,UP,RIGHT,True,False,True,True,RIGHT,RIGHT
100,370,DOWN,LEFT,True,True,False,True,DOWN,DOWN
100,10,UP,RIGHT,True,True,True,False,UP,UP
20,330,EQUAL,LEFT,False,True,True,True,LEFT,LEFT
40,240,UP,LEFT,True,True,True,False,UP,UP
370,230,UP,LEFT,True,False,True,True,RIGHT,RIGHT
50,250,UP,LEFT,False,True,True,True,LEFT,LEFT
20,330,DOWN,LEFT,True,False,True,True,RIGHT,DOWN
270,120,DOWN,LEFT,True,True,False,True,DOWN,DOWN
180,280,EQUAL,LEFT,False,True,True,True,LEFT,LEFT
120,70,UP,LEFT,False,True,True,True,LEFT,LEFT
460,440,DOWN,RIGHT,True,False,True,True,RIGHT,RIGHT
460,440,DOWN,RIGHT,True,True,True,False,UP,UP
60,180,DOWN,LEFT,True,True,True,False,UP,UP
130,70,UP,RIGHT,True,True,True,False,UP,UP
120,50,UP,LEFT,True,True,True,False,UP,UP
430,320,DOWN,RIGHT,True,False,True,True,RIGHT,RIGHT
400,20,UP,RIGHT,True,True,True,False,UP,UP
280,210,UP,LEFT,False,True,True,True,LEFT,LEFT
390,260,UP,RIGHT,True,True,True,False,UP,UP
100,370,EQUAL,LEFT,False,True,True,True,LEFT,LEFT
30,440,DOWN,LEFT,False,True,True,True,LEFT,LEFT
150,260,EQUAL,LEFT,False,True,True,True,LEFT,LEFT
460,190,UP,RIGHT,True,False,True,True,RIGHT,RIGHT
320,270,UP,EQUAL,True,True,True,False,UP,UP
160,420,DOWN,RIGHT,True,True,False,True,DOWN,DOWN
130,10,UP,EQUAL,True,True,True,False,UP,UP
110,440,DOWN,LEFT,True,True,False,True,DOWN,LEFT
390,80,UP,RIGHT,True,True,True,False,UP,UP
460,440,DOWN,RIGHT,True,True,True,False,UP,UP
390,80,DOWN,RIGHT,True,False,True,True,RIGHT,RIGHT
460,190,UP,RIGHT,True,False,True,True,RIGHT,RIGHT
210,440,DOWN,RIGHT,True,True,False,True,DOWN,DOWN
390,170,DOWN,RIGHT,True,False,True,True,RIGHT,RIGHT
220,360,UP,RIGHT,True,False,True,True,RIGHT,RIGHT
180,80,EQUAL,RIGHT,True,False,True,True,RIGHT,RIGHT
10,110,UP,EQUAL,False,True,True,False,UP,UP
30,410,DOWN,RIGHT,True,True,False,True,DOWN,DOWN
310,120,DOWN,EQUAL,True,False,False,True,DOWN,DOWN
10,460,DOWN,LEFT,False,True,True,True,LEFT,LEFT
100,370,DOWN,LEFT,True,True,False,True,DOWN,DOWN
120,70,UP,EQUAL,True,True,True,False,UP,UP
340,300,DOWN,LEFT,True,True,False,True,DOWN,DOWN
100,50,UP,EQUAL,True,True,True,False,UP,UP
100,370,DOWN,LEFT,True,True,False,True,DOWN,DOWN
40,210,UP,LEFT,True,False,True,True,RIGHT,RIGHT
100,370,EQUAL,LEFT,False,True,True,True,LEFT,LEFT
30,410,EQUAL,LEFT,False,True,True,False,LEFT,LEFT
440,80,UP,RIGHT,True,True,True,False,UP,UP
160,420,DOWN,EQUAL,True,True,False,True,DOWN,DOWN
40,240,DOWN,LEFT,False,True,True,True,LEFT,LEFT
210,440,DOWN,RIGHT,True,True,True,False,UP,UP
390,80,UP,RIGHT,True,True,True,False,UP,UP
30,410,UP,LEFT,True,False,True,True,RIGHT,UP
180,360,DOWN,EQUAL,True,True,False,True,DOWN,DOWN
280,450,EQUAL,LEFT,False,True,True,True,LEFT,LEFT
10,460,DOWN,LEFT,False,True,True,True,LEFT,LEFT
390,260,UP,RIGHT,True,False,True,True,RIGHT,RIGHT
370,230,DOWN,LEFT,True,True,True,False,UP,UP
460,20,UP,RIGHT,True,True,True,False,UP,UP
350,310,UP,RIGHT,True,False,True,True,RIGHT,RIGHT
460,20,UP,EQUAL,True,True,True,False,UP,UP
130,10,UP,LEFT,True,False,True,True,RIGHT,RIGHT
220,70,EQUAL,RIGHT,True,False,True,True,RIGHT,RIGHT
210,440,DOWN,RIGHT,True,True,False,True,DOWN,DOWN
170,100,UP,EQUAL,True,False,True,False,UP,UP
30,440,DOWN,LEFT,False,True,True,True,LEFT,LEFT
320,270,UP,RIGHT,True,False,True,False,RIGHT,RIGHT
460,440,DOWN,RIGHT,True,False,True,True,RIGHT,RIGHT
280,160,UP,RIGHT,False,True,True,True,LEFT,LEFT
440,80,UP,RIGHT,True,True,True,False,UP,UP
220,360,UP,RIGHT,True,True,False,True,DOWN,RIGHT
400,20,UP,RIGHT,True,True,True,False,UP,UP
170,100,UP,RIGHT,True,True,False,True,DOWN,DOWN
420,20,DOWN,RIGHT,True,False,False,True,RIGHT,RIGHT
320,270,UP,RIGHT,True,False,True,False,RIGHT,RIGHT
400,20,UP,RIGHT,True,False,True,True,RIGHT,RIGHT
130,10,UP,EQUAL,True,False,True,True,RIGHT,RIGHT
80,410,DOWN,LEFT,True,True,False,True,DOWN,DOWN
100,10,UP,LEFT,True,True,False,True,DOWN,DOWN
180,80,DOWN,RIGHT,True,True,False,True,DOWN,DOWN
50,250,DOWN,LEFT,True,True,False,True,DOWN,DOWN
60,180,DOWN,LEFT,True,True,True,False,UP,LEFT
450,270,DOWN,RIGHT,True,False,True,True,RIGHT,RIGHT
40,210,UP,LEFT,True,True,True,False,UP,UP
380,200,UP,LEFT,False,True,True,True,LEFT,LEFT
400,20,UP,RIGHT,True,False,True,True,RIGHT,RIGHT
280,160,UP,RIGHT,False,True,True,True,LEFT,LEFT
50,250,DOWN,LEFT,True,True,True,False,UP,UP
120,50,EQUAL,LEFT,False,True,True,True,LEFT,LEFT
120,50,UP,LEFT,True,True,True,False,UP,UP
460,20,UP,RIGHT,True,False,True,True,RIGHT,RIGHT
100,370,DOWN,LEFT,True,True,False,True,DOWN,DOWN
440,80,EQUAL,RIGHT,True,False,True,True,RIGHT,RIGHT
130,70,UP,RIGHT,True,True,True,False,UP,UP
430,320,DOWN,RIGHT,True,True,False,True,DOWN,DOWN
170,100,DOWN,LEFT,False,True,True,True,LEFT,LEFT
280,160,EQUAL,RIGHT,True,False,True,False,RIGHT,RIGHT
290,50,UP,RIGHT,True,False,True,True,RIGHT,RIGHT
350,310,UP,RIGHT,True,False,True,True,RIGHT,RIGHT
460,440,DOWN,RIGHT,True,False,True,True,RIGHT,RIGHT
30,440,DOWN,LEFT,True,True,False,True,DOWN,LEFT
380,200,UP,LEFT,False,True,True,True,LEFT,LEFT
30,440,DOWN,LEFT,True,True,False,True,DOWN,DOWN
360,430,DOWN,LEFT,True,True,False,True,DOWN,DOWN
80,410,DOWN,LEFT,True,False,True,True,RIGHT,RIGHT
260,150,UP,RIGHT,True,True,True,False,UP,UP
400,20,UP,RIGHT,True,True,True,False,UP,UP
460,20,UP,EQUAL,True,True,True,False,UP,UP
440,370,DOWN,RIGHT,True,False,True,True,RIGHT,RIGHT
320,270,UP,EQUAL,True,True,True,False,UP,UP
10,460,DOWN,LEFT,False,True,True,True,LEFT,LEFT
390,170,DOWN,RIGHT,True,False,False,True,DOWN,RIGHT
390,80,DOWN,RIGHT,True,False,True,True,RIGHT,RIGHT
270,120,DOWN,RIGHT,True,False,True,True,RIGHT,RIGHT
370,330,DOWN,EQUAL,True,True,False,True,DOWN,DOWN
40,400,DOWN,LEFT,False,True,True,True,LEFT,LEFT
80,410,DOWN,LEFT,True,True,False,True,DOWN,DOWN
210,440,DOWN,RIGHT,True,True,True,False,UP,UP
180,80,DOWN,RIGHT,True,True,False,True,DOWN,DOWN
160,410,UP,RIGHT,False,True,True,True,LEFT,LEFT
110,440,DOWN,RIGHT,True,True,False,True,DOWN,DOWN
100,50,UP,LEFT,False,True,True,True,LEFT,LEFT
340,300,DOWN,LEFT,True,True,False,True,DOWN,DOWN
460,440,DOWN,RIGHT,True,False,True,True,RIGHT,RIGHT
100,10,UP,RIGHT,True,True,True,False,UP,UP
30,440,DOWN,LEFT,False,True,True,True,LEFT,LEFT
280,160,UP,RIGHT,False,True,True,True,LEFT,LEFT
100,50,UP,LEFT,True,True,True,False,UP,UP
400,20,UP,RIGHT,True,True,True,False,UP,UP
130,70,UP,RIGHT,True,True,True,False,UP,UP
190,190,DOWN,LEFT,False,True,True,True,LEFT,LEFT
360,430,DOWN,LEFT,True,True,False,True,DOWN,DOWN
40,240,UP,LEFT,True,False,True,True,RIGHT,UP
280,160,DOWN,LEFT,True,True,False,True,DOWN,DOWN
390,260,UP,RIGHT,True,True,True,False,UP,UP
180,80,DOWN,RIGHT,False,True,True,True,LEFT,LEFT
370,230,DOWN,RIGHT,True,True,False,True,DOWN,RIGHT
260,150,UP,RIGHT,True,False,True,True,RIGHT,UP
210,440,DOWN,RIGHT,True,True,True,False,UP,UP
120,50,UP,LEFT,True,True,True,False,UP,UP
170,100,UP,LEFT,True,True,True,False,UP,UP
280,160,DOWN,RIGHT,True,False,True,True,RIGHT,RIGHT
180,360,EQUAL,EQUAL,True,True,True,False,UP,RIGHT
160,410,DOWN,RIGHT,True,False,True,True,RIGHT,RIGHT
40,240,UP,LEFT,True,False,False,True,RIGHT,RIGHT
360,430,DOWN,LEFT,True,True,False,True,DOWN,DOWN
360,430,DOWN,LEFT,True,True,False,True,DOWN,DOWN
130,10,DOWN,RIGHT,False,True,False,True,LEFT,DOWN
30,410,UP,RIGHT,True,True,False,True,DOWN,RIGHT
80,410,DOWN,RIGHT,True,True,False,True,DOWN,DOWN
450,270,DOWN,RIGHT,True,False,True,True,RIGHT,RIGHT
310,120,UP,LEFT,True,True,True,False,UP,UP
390,80,DOWN,RIGHT,True,False,True,True,RIGHT,RIGHT
290,50,UP,RIGHT,True,False,True,True,RIGHT,RIGHT
180,80,EQUAL,RIGHT,True,False,True,True,RIGHT,RIGHT
460,190,UP,RIGHT,True,True,False,True,DOWN,DOWN
100,370,DOWN,LEFT,True,True,False,True,DOWN,DOWN
390,170,UP,EQUAL,False,True,True,False,UP,UP
430,320,DOWN,RIGHT,True,False,True,True,RIGHT,RIGHT
280,210,UP,EQUAL,True,True,True,False,UP,UP
100,370,DOWN,LEFT,True,True,False,True,DOWN,DOWN
400,20,UP,RIGHT,True,False,True,True,RIGHT,RIGHT
460,20,UP,RIGHT,True,False,True,True,RIGHT,RIGHT
120,50,DOWN,LEFT,False,True,True,True,LEFT,LEFT
100,370,DOWN,LEFT,True,True,False,True,DOWN,DOWN
280,450,DOWN,LEFT,True,True,False,True,DOWN,DOWN
40,210,UP,LEFT,True,True,True,False,UP,UP
40,240,DOWN,LEFT,False,True,True,True,LEFT,LEFT
310,120,UP,RIGHT,True,True,True,False,UP,UP
40,210,UP,LEFT,True,True,True,False,UP,UP
150,260,DOWN,LEFT,True,True,False,True,DOWN,DOWN
10,460,DOWN,EQUAL,True,True,False,True,DOWN,DOWN
10,110,DOWN,LEFT,True,True,False,True,DOWN,LEFT
220,70,EQUAL,RIGHT,True,False,True,True,RIGHT,RIGHT
40,240,DOWN,LEFT,False,True,True,True,LEFT,LEFT
100,10,EQUAL,RIGHT,True,True,True,False,UP,UP
460,440,DOWN,RIGHT,True,False,True,True,RIGHT,RIGHT
460,190,UP,EQUAL,True,True,True,False,UP,UP
30,440,DOWN,EQUAL,True,True,False,True,DOWN,DOWN
280,210,UP,EQUAL,True,True,True,False,UP,UP
220,360,UP,RIGHT,True,False,True,True,RIGHT,RIGHT
120,50,UP,LEFT,True,True,True,False,UP,UP
320,270,UP,EQUAL,True,True,True,False,UP,UP
450,270,DOWN,RIGHT,True,False,True,True,RIGHT,RIGHT
210,440,DOWN,RIGHT,True,True,False,True,DOWN,DOWN
10,110,UP,EQUAL,False,True,True,True,LEFT,UP
160,420,DOWN,EQUAL,True,True,False,True,DOWN,DOWN
180,360,DOWN,EQUAL,True,True,False,True,DOWN,DOWN
340,300,DOWN,LEFT,True,True,False,True,DOWN,DOWN
370,230,EQUAL,EQUAL,False,True,True,False,UP,UP
380,200,UP,EQUAL,True,True,True,False,UP,UP
210,440,DOWN,RIGHT,True,True,False,True,DOWN,DOWN
420,20,DOWN,RIGHT,True,False,False,True,RIGHT,RIGHT
280,160,DOWN,RIGHT,True,True,False,True,DOWN,DOWN
30,440,DOWN,LEFT,False,True,True,True,LEFT,LEFT
460,440,DOWN,RIGHT,True,False,True,True,RIGHT,RIGHT
360,430,DOWN,LEFT,True,True,False,True,DOWN,DOWN
160,410,DOWN,RIGHT,True,False,True,True,RIGHT,RIGHT
370,230,DOWN,EQUAL,True,True,False,True,DOWN,DOWN
30,440,DOWN,LEFT,True,True,False,True,DOWN,DOWN
180,360,DOWN,EQUAL,True,True,False,True,DOWN,DOWN
260,150,DOWN,RIGHT,True,False,True,True,RIGHT,RIGHT
220,70,DOWN,RIGHT,True,True,True,False,UP,UP
290,50,UP,RIGHT,True,False,True,False,UP,UP
390,170,DOWN,RIGHT,True,False,True,True,RIGHT,RIGHT
400,20,UP,RIGHT,True,True,True,False,UP,UP
360,430,DOWN,LEFT,True,True,False,True,DOWN,DOWN
390,260,UP,RIGHT,True,False,True,True,RIGHT,RIGHT
280,160,EQUAL,RIGHT,True,False,True,False,RIGHT,RIGHT
40,240,UP,LEFT,True,False,True,True,RIGHT,RIGHT
420,20,DOWN,RIGHT,True,False,False,True,RIGHT,RIGHT
210,440,DOWN,RIGHT,True,False,True,True,RIGHT,RIGHT
60,180,DOWN,EQUAL,True,True,False,True,DOWN,DOWN
130,10,UP,EQUAL,True,True,True,False,UP,UP
100,370,EQUAL,LEFT,False,True,True,True,LEFT,LEFT
100,50,UP,LEFT,True,True,True,False,UP,UP
170,100,UP,LEFT,True,True,True,False,UP,UP
20,330,EQUAL,EQUAL,True,False,True,True,RIGHT,RIGHT
310,120,UP,RIGHT,False,True,True,True,LEFT,LEFT
420,20,DOWN,RIGHT,True,False,False,True,RIGHT,RIGHT
440,80,UP,RIGHT,True,True,True,False,UP,UP
350,310,UP,RIGHT,True,False,True,True,RIGHT,RIGHT
170,100,DOWN,LEFT,False,True,True,True,LEFT,LEFT
160,410,DOWN,LEFT,True,True,False,True,DOWN,DOWN
440,370,DOWN,RIGHT,True,False,True,True,RIGHT,RIGHT
10,460,DOWN,EQUAL,True,True,False,True,DOWN,DOWN
290,50,UP,EQUAL,True,True,True,False,UP,UP
130,10,DOWN,LEFT,False,True,False,True,LEFT,LEFT
50,250,DOWN,LEFT,True,True,True,False,UP,RIGHT
390,170,DOWN,LEFT,True,True,False,True,DOWN,DOWN
280,160,DOWN,RIGHT,True,False,True,True,RIGHT,RIGHT
210,440,EQUAL,RIGHT,True,False,True,True,RIGHT,RIGHT
100,10,UP,LEFT,True,True,False,True,DOWN,DOWN
40,400,DOWN,LEFT,False,True,True,True,LEFT,LEFT
120,80,EQUAL,LEFT,True,False,True,True,RIGHT,DOWN
20,330,EQUAL,LEFT,False,True,True,True,LEFT,LEFT
390,80,UP,RIGHT,True,True,True,False,UP,UP
280,450,EQUAL,LEFT,False,True,True,True,LEFT,LEFT
270,380,UP,RIGHT,True,True,False,True,DOWN,DOWN
340,300,UP,LEFT,False,True,True,True,LEFT,LEFT
360,430,DOWN,LEFT,True,True,False,True,DOWN,DOWN
40,400,DOWN,LEFT,False,True,True,True,LEFT,LEFT
290,50,UP,RIGHT,True,False,True,True,RIGHT,RIGHT
360,430,EQUAL,RIGHT,True,False,False,True,RIGHT,RIGHT
420,20,DOWN,EQUAL,True,False,False,True,RIGHT,DOWN
260,150,DOWN,RIGHT,True,False,True,True,RIGHT,RIGHT
390,80,DOWN,RIGHT,True,False,True,True,RIGHT,RIGHT
320,270,UP,EQUAL,True,True,True,False,UP,UP
340,300,EQUAL,LEFT,True,True,False,True,DOWN,DOWN
10,460,DOWN,EQUAL,True,True,False,True,DOWN,DOWN
380,200,UP,EQUAL,True,True,True,False,UP,UP
440,80,EQUAL,RIGHT,True,True,True,False,UP,RIGHT
390,260,UP,RIGHT,False,True,True,True,LEFT,LEFT
340,300,DOWN,LEFT,True,True,False,True,DOWN,DOWN
220,360,UP,RIGHT,True,False,True,True,RIGHT,RIGHT
80,410,EQUAL,EQUAL,False,True,True,True,LEFT,LEFT
390,80,UP,RIGHT,True,True,True,False,UP,UP
10,110,UP,LEFT,True,True,False,True,DOWN,DOWN
320,270,UP,EQUAL,True,True,True,False,UP,UP
460,190,UP,RIGHT,True,False,True,True,RIGHT,RIGHT
370,330,DOWN,EQUAL,True,True,False,True,DOWN,DOWN
390,170,UP,LEFT,True,True,False,True,DOWN,DOWN
40,210,UP,LEFT,True,True,True,False,UP,UP
340,300,DOWN,LEFT,True,True,False,True,DOWN,DOWN
160,420,DOWN,RIGHT,True,True,False,True,DOWN,DOWN
340,300,DOWN,LEFT,True,True,False,True,DOWN,DOWN
30,440,DOWN,LEFT,True,False,True,True,RIGHT,DOWN
80,410,DOWN,RIGHT,True,False,True,True,RIGHT,RIGHT
50,250,UP,LEFT,False,True,True,True,LEFT,LEFT
30,410,DOWN,RIGHT,True,True,False,True,DOWN,DOWN
100,10,DOWN,LEFT,True,False,False,True,RIGHT,RIGHT
100,10,UP,RIGHT,True,True,True,False,UP,UP
180,360,DOWN,EQUAL,True,True,False,True,DOWN,DOWN
130,10,UP,LEFT,True,False,True,True,RIGHT,RIGHT
170,100,UP,LEFT,True,True,True,False,UP,UP
130,70,UP,RIGHT,True,False,True,True,RIGHT,RIGHT
290,50,UP,EQUAL,True,True,True,False,UP,UP
30,410,DOWN,RIGHT,True,True,False,True,DOWN,DOWN
400,20,UP,RIGHT,True,False,True,True,RIGHT,RIGHT
120,50,DOWN,LEFT,False,True,True,True,LEFT,LEFT
120,80,UP,LEFT,True,True,False,True,DOWN,RIGHT
270,380,UP,RIGHT,True,True,False,True,DOWN,RIGHT
370,230,DOWN,LEFT,False,True,True,False,UP,LEFT
40,240,EQUAL,LEFT,False,True,True,True,LEFT,LEFT
370,230,DOWN,RIGHT,True,True,False,True,DOWN,DOWN
120,50,EQUAL,LEFT,False,True,True,True,LEFT,LEFT
310,120,UP,LEFT,True,True,True,False,UP,UP
40,400,DOWN,LEFT,True,True,True,False,UP,UP
40,210,EQUAL,LEFT,False,True,True,True,LEFT,LEFT
160,420,DOWN,RIGHT,True,True,False,True,DOWN,DOWN
390,80,DOWN,RIGHT,True,True,True,False,UP,UP
170,100,UP,LEFT,True,True,True,False,UP,UP
30,410,DOWN,RIGHT,True,True,False,True,DOWN,DOWN
300,330,UP,RIGHT,True,True,True,False,UP,UP
210,440,UP,RIGHT,False,True,True,True,LEFT,LEFT
290,50,UP,RIGHT,True,False,True,True,RIGHT,RIGHT
110,440,DOWN,RIGHT,True,True,False,True,DOWN,DOWN
100,50,UP,LEFT,False,True,True,True,LEFT,LEFT
460,440,DOWN,RIGHT,True,False,True,True,RIGHT,RIGHT
40,400,DOWN,LEFT,True,True,True,False,UP,UP
270,120,EQUAL,LEFT,True,True,False,True,DOWN,LEFT
320,270,UP,RIGHT,True,False,True,False,RIGHT,RIGHT
390,170,UP,EQUAL,False,True,True,False,UP,UP
30,410,DOWN,RIGHT,True,True,False,True,DOWN,DOWN
390,80,DOWN,RIGHT,True,False,True,True,RIGHT,RIGHT
320,270,UP,RIGHT,True,False,True,False,RIGHT,RIGHT
350,310,UP,RIGHT,True,False,True,True,RIGHT,RIGHT
280,160,UP,RIGHT,False,True,True,True,LEFT,LEFT
460,440,DOWN,RIGHT,True,False,True,True,RIGHT,RIGHT
40,240,UP,LEFT,True,False,True,True,RIGHT,RIGHT
80,410,DOWN,RIGHT,True,False,True,True,RIGHT,RIGHT
390,80,UP,RIGHT,True,True,True,False,UP,UP
170,100,DOWN,LEFT,False,True,True,True,LEFT,LEFT
100,370,EQUAL,LEFT,False,True,True,True,LEFT,LEFT
180,360,DOWN,EQUAL,True,True,False,True,DOWN,DOWN
40,240,DOWN,LEFT,False,True,True,True,LEFT,LEFT
100,370,EQUAL,EQUAL,True,False,True,True,RIGHT,RIGHT
170,100,DOWN,LEFT,False,True,True,True,LEFT,LEFT
160,410,DOWN,RIGHT,True,False,True,True,RIGHT,RIGHT
290,50,UP,EQUAL,True,True,True,False,UP,UP
320,270,UP,EQUAL,True,True,True,False,UP,UP
430,320,DOWN,RIGHT,True,False,True,True,RIGHT,RIGHT
40,240,UP,LEFT,True,False,False,True,RIGHT,RIGHT
310,120,UP,LEFT,True,True,True,False,UP,UP
460,20,UP,EQUAL,True,True,True,False,UP,UP
160,410,DOWN,LEFT,True,True,False,True,DOWN,DOWN
30,440,DOWN,LEFT,True,False,True,True,RIGHT,RIGHT
170,100,UP,LEFT,True,True,True,False,UP,UP
150,260,DOWN,LEFT,False,True,True,True,LEFT,LEFT
160,410,DOWN,RIGHT,True,True,True,False,UP,RIGHT
450,270,DOWN,RIGHT,True,False,True,True,RIGHT,RIGHT
390,260,UP,RIGHT,True,True,True,False,UP,UP
160,410,UP,RIGHT,False,True,True,True,LEFT,LEFT
460,20,UP,EQUAL,True,True,True,False,UP,UP
30,440,DOWN,LEFT,True,False,True,True,RIGHT,RIGHT
430,320,DOWN,RIGHT,True,False,True,True,RIGHT,RIGHT
80,410,DOWN,RIGHT,False,True,True,True,LEFT,UP
210,440,UP,RIGHT,False,True,True,True,LEFT,LEFT
80,410,DOWN,RIGHT,True,True,True,False,UP,UP
390,260,UP,RIGHT,True,False,True,True,RIGHT,RIGHT
370,230,EQUAL,RIGHT,True,True,False,True,DOWN,DOWN
40,240,DOWN,LEFT,False,True,True,True,LEFT,LEFT
210,440,UP,RIGHT,False,True,True,True,LEFT,UP
110,440,DOWN,RIGHT,True,False,True,True,RIGHT,RIGHT
20,330,EQUAL,LEFT,False,True,True,True,LEFT,LEFT
290,50,UP,EQUAL,True,True,True,False,UP,UP
170,100,UP,LEFT,True,True,True,False,UP,UP
270,380,UP,RIGHT,True,False,True,True,RIGHT,RIGHT
310,120,UP,EQUAL,True,False,True,True,RIGHT,RIGHT
150,260,EQUAL,LEFT,False,True,True,True,LEFT,LEFT
130,70,UP,EQUAL,True,True,True,False,UP,UP
280,160,UP,RIGHT,False,True,True,True,LEFT,LEFT
100,50,UP,LEFT,False,True,True,True,LEFT,LEFT
290,50,UP,EQUAL,True,True,True,False,UP,UP
340,300,DOWN,LEFT,True,True,False,True,DOWN,DOWN
260,150,UP,RIGHT,True,False,True,True,RIGHT,RIGHT
110,440,DOWN,LEFT,True,True,False,True,DOWN,DOWN
440,370,EQUAL,EQUAL,True,False,True,True,RIGHT,RIGHT
20,330,DOWN,LEFT,True,True,False,True,DOWN,DOWN
350,310,UP,RIGHT,True,False,True,True,RIGHT,RIGHT
310,120,UP,RIGHT,True,False,True,True,RIGHT,RIGHT
80,410,DOWN,RIGHT,True,True,True,False,UP,UP
280,450,EQUAL,LEFT,False,True,True,True,LEFT,LEFT
290,50,UP,RIGHT,True,False,True,True,RIGHT,RIGHT
40,400,DOWN,EQUAL,True,True,False,True,DOWN,DOWN
130,70,UP,EQUAL,True,True,True,False,UP,UP
180,360,DOWN,EQUAL,True,True,False,True,DOWN,DOWN
100,10,DOWN,LEFT,True,False,False,True,RIGHT,DOWN
100,370,EQUAL,LEFT,False,True,True,True,LEFT,LEFT
210,440,DOWN,RIGHT,True,True,False,True,DOWN,DOWN
390,260,UP,EQUAL,True,True,True,False,UP,UP
170,100,DOWN,LEFT,False,True,True,True,LEFT,LEFT
370,230,DOWN,RIGHT,False,True,True,True,LEFT,LEFT
100,10,UP,RIGHT,True,True,True,False,UP,UP
220,70,DOWN,RIGHT,True,True,True,False,UP,RIGHT
210,440,DOWN,RIGHT,True,False,True,True,RIGHT,RIGHT
130,70,UP,EQUAL,True,True,True,False,UP,UP
370,230,DOWN,RIGHT,True,True,False,True,DOWN,DOWN
350,310,UP,RIGHT,True,False,True,True,RIGHT,RIGHT
380,200,UP,LEFT,True,True,False,True,DOWN,LEFT
370,230,UP,RIGHT,True,True,False,True,DOWN,RIGHT
30,410,DOWN,LEFT,True,True,True,False,UP,UP
400,20,UP,RIGHT,True,True,True,False,UP,UP
260,150,DOWN,RIGHT,True,False,True,True,RIGHT,RIGHT
430,320,DOWN,RIGHT,True,False,True,True,RIGHT,RIGHT
210,440,UP,RIGHT,False,True,True,True,LEFT,LEFT
120,80,UP,LEFT,True,False,True,True,RIGHT,UP
450,270,DOWN,RIGHT,True,False,True,True,RIGHT,RIGHT
360,430,DOWN,LEFT,True,True,False,True,DOWN,DOWN
290,50,UP,EQUAL,True,True,True,False,UP,UP
160,420,DOWN,LEFT,True,True,True,False,UP,LEFT
120,50,UP,LEFT,True,True,True,False,UP,UP
220,360,UP,RIGHT,True,False,True,True,RIGHT,RIGHT
280,450,DOWN,LEFT,True,True,False,True,DOWN,DOWN
380,200,UP,EQUAL,True,True,True,False,UP,UP
290,50,UP,RIGHT,True,False,True,True,RIGHT,RIGHT
220,360,UP,EQUAL,True,False,True,True,RIGHT,UP
460,20,UP,RIGHT,True,False,True,True,RIGHT,RIGHT
80,410,DOWN,LEFT,True,False,True,True,RIGHT,RIGHT
30,410,UP,LEFT,True,False,True,True,RIGHT,RIGHT
110,440,DOWN,RIGHT,True,True,False,True,DOWN,DOWN
190,190,DOWN,LEFT,False,True,True,True,LEFT,LEFT
170,100,DOWN,LEFT,False,True,True,True,LEFT,LEFT
180,360,DOWN,EQUAL,True,True,False,True,DOWN,DOWN
110,440,DOWN,RIGHT,False,True,True,True,LEFT,LEFT
20,330,EQUAL,LEFT,False,True,True,True,LEFT,LEFT
30,410,DOWN,LEFT,False,True,True,True,LEFT,LEFT
390,260,UP,LEFT,True,True,False,True,DOWN,LEFT
80,410,DOWN,RIGHT,True,True,True,False,UP,UP
20,330,EQUAL,LEFT,False,True,True,True,LEFT,LEFT
290,50,UP,RIGHT,True,False,True,True,RIGHT,RIGHT
40,400,DOWN,LEFT,False,True,True,True,LEFT,LEFT
150,260,DOWN,LEFT,False,True,True,True,LEFT,LEFT
210,440,DOWN,RIGHT,True,False,True,True,RIGHT,DOWN
190,190,DOWN,RIGHT,True,True,False,True,DOWN,RIGHT
460,440,DOWN,RIGHT,True,True,False,True,DOWN,DOWN
130,70,UP,RIGHT,True,True,True,False,UP,UP
460,440,DOWN,RIGHT,True,False,True,True,RIGHT,RIGHT
100,10,DOWN,RIGHT,True,False,False,True,RIGHT,RIGHT
430,320,DOWN,RIGHT,True,False,True,True,RIGHT,RIGHT
390,170,DOWN,EQUAL,True,False,True,True,RIGHT,RIGHT
130,10,UP,LEFT,True,True,True,False,UP,UP
290,50,UP,EQUAL,True,True,True,False,UP,UP
420,20,DOWN,RIGHT,True,False,False,True,RIGHT,RIGHT
290,50,UP,EQUAL,True,True,True,False,UP,UP
220,70,EQUAL,RIGHT,True,False,True,True,RIGHT,RIGHT
390,260,UP,LEFT,True,True,False,True,DOWN,DOWN
390,260,EQUAL,EQUAL,True,True,False,True,DOWN,DOWN
320,270,UP,RIGHT,True,False,True,False,RIGHT,RIGHT
30,410,DOWN,LEFT,True,True,True,False,UP,UP
120,50,EQUAL,LEFT,False,True,True,True,LEFT,LEFT
160,420,DOWN,LEFT,False,True,True,True,LEFT,LEFT
220,360,UP,RIGHT,True,False,True,True,RIGHT,RIGHT
400,20,UP,RIGHT,True,True,True,False,UP,RIGHT
40,210,EQUAL,LEFT,False,True,True,True,LEFT,LEFT
390,260,UP,RIGHT,True,False,True,True,RIGHT,RIGHT
270,380,UP,RIGHT,True,True,False,True,DOWN,DOWN
80,410,DOWN,LEFT,True,False,True,True,RIGHT,RIGHT
100,370,DOWN,LEFT,True,True,False,True,DOWN,DOWN
220,360,UP,RIGHT,True,False,True,True,RIGHT,RIGHT
370,230,DOWN,RIGHT,False,True,True,True,LEFT,LEFT
30,440,EQUAL,EQUAL,True,False,True,True,RIGHT,RIGHT
280,160,DOWN,RIGHT,True,False,True,True,RIGHT,RIGHT
440,80,UP,RIGHT,True,True,True,False,UP,UP
190,190,DOWN,RIGHT,True,True,False,True,DOWN,DOWN
100,50,UP,LEFT,False,True,True,True,LEFT,LEFT
340,300,UP,EQUAL,False,True,True,True,LEFT,UP
60,180,DOWN,LEFT,False,True,True,True,LEFT,LEFT
310,120,UP,LEFT,True,True,True,False,UP,UP
130,10,UP,EQUAL,True,False,True,False,UP,UP
370,230,DOWN,LEFT,False,True,True,True,LEFT,LEFT
180,360,DOWN,EQUAL,True,True,False,True,DOWN,DOWN
390,260,UP,RIGHT,True,False,True,True,RIGHT,RIGHT
120,50,DOWN,LEFT,False,True,True,True,LEFT,LEFT
440,370,DOWN,EQUAL,True,False,True,True,RIGHT,DOWN
50,250,UP,LEFT,False,True,True,True,LEFT,LEFT
290,50,UP,RIGHT,True,True,True,False,UP,UP
20,330,DOWN,LEFT,True,True,False,True,DOWN,DOWN
390,260,UP,RIGHT,False,True,True,True,LEFT,UP
420,20,DOWN,RIGHT,True,False,False,True,RIGHT,RIGHT
170,100,UP,RIGHT,True,True,False,True,DOWN,DOWN
110,440,DOWN,LEFT,False,True,True,True,LEFT,LEFT
100,10,EQUAL,EQUAL,False,True,True,True,LEFT,LEFT
430,320,DOWN,RIGHT,True,False,True,True,RIGHT,RIGHT
30,410,EQUAL,LEFT,False,True,True,False,LEFT,LEFT
80,410,DOWN,RIGHT,True,True,False,True,DOWN,DOWN
40,400,DOWN,LEFT,False,True,True,True,LEFT,LEFT
270,380,UP,RIGHT,True,False,True,True,RIGHT,RIGHT
120,50,DOWN,LEFT,False,True,True,True,LEFT,LEFT
120,80,UP,LEFT,True,True,False,True,DOWN,DOWN
160,420,DOWN,LEFT,False,True,True,True,LEFT,LEFT
380,200,UP,LEFT,False,True,True,True,LEFT,LEFT
170,100,DOWN,LEFT,False,True,True,True,LEFT,LEFT
310,120,DOWN,RIGHT,True,True,True,False,UP,UP
310,120,DOWN,RIGHT,True,True,True,False,UP,UP
310,120,DOWN,EQUAL,True,False,True,True,RIGHT,DOWN
260,150,DOWN,RIGHT,True,False,True,True,RIGHT,DOWN
370,230,DOWN,EQUAL,False,True,True,True,LEFT,LEFT
180,280,EQUAL,LEFT,False,True,True,True,LEFT,LEFT
190,190,DOWN,RIGHT,True,True,False,True,DOWN,DOWN
40,400,DOWN,EQUAL,True,True,False,True,DOWN,DOWN
190,190,DOWN,LEFT,False,True,True,True,LEFT,LEFT
220,360,UP,EQUAL,True,True,True,False,UP,UP
280,450,DOWN,LEFT,True,True,False,True,DOWN,DOWN
40,400,DOWN,LEFT,False,True,True,True,LEFT,LEFT
290,50,UP,EQUAL,True,True,True,False,UP,UP
280,210,UP,EQUAL,False,True,True,True,LEFT,UP
340,300,DOWN,LEFT,True,True,False,True,DOWN,DOWN
100,10,UP,RIGHT,False,True,True,True,LEFT,LEFT
460,440,DOWN,RIGHT,True,True,False,True,DOWN,DOWN
360,430,DOWN,LEFT,True,True,False,True,DOWN,DOWN
180,280,UP,LEFT,True,True,True,False,UP,UP
370,230,DOWN,RIGHT,True,False,False,True,RIGHT,RIGHT
310,120,UP,LEFT,True,True,True,False,UP,UP
180,280,EQUAL,LEFT,False,True,True,True,LEFT,LEFT
160,410,UP,RIGHT,False,True,True,True,LEFT,LEFT
10,460,DOWN,LEFT,False,True,True,True,LEFT,LEFT
40,240,DOWN,LEFT,False,True,True,True,LEFT,LEFT
10,110,UP,EQUAL,False,True,True,False,UP,UP
450,270,DOWN,RIGHT,True,False,True,True,RIGHT,DOWN
60,180,DOWN,LEFT,False,True,True,True,LEFT,LEFT
430,320,DOWN,RIGHT,True,False,True,True,RIGHT,RIGHT
100,50,UP,LEFT,False,True,True,True,LEFT,LEFT
320,270,UP,RIGHT,True,False,True,False,RIGHT,RIGHT
390,260,UP,LEFT,False,True,True,True,LEFT,LEFT
460,440,DOWN,RIGHT,True,False,True,True,RIGHT,RIGHT
380,200,UP,EQUAL,True,True,True,False,UP,UP
440,370,DOWN,RIGHT,True,False,True,True,RIGHT,RIGHT
280,450,EQUAL,LEFT,False,True,True,True,LEFT,LEFT
100,10,UP,LEFT,True,True,True,False,UP,UP
100,10,EQUAL,LEFT,True,True,False,True,DOWN,DOWN
130,70,UP,RIGHT,True,True,True,False,UP,UP
190,190,DOWN,RIGHT,True,True,False,True,DOWN,DOWN
320,270,UP,EQUAL,True,True,True,False,UP,UP
150,260,DOWN,LEFT,False,True,True,True,LEFT,LEFT
40,400,DOWN,LEFT,False,True,True,True,LEFT,LEFT
290,50,UP,RIGHT,True,True,True,False,UP,UP
160,420,DOWN,RIGHT,True,True,False,True,DOWN,DOWN
220,70,EQUAL,EQUAL,False,True,True,False,UP,UP
110,440,EQUAL,EQUAL,False,True,True,True,LEFT,LEFT
120,50,DOWN,LEFT,False,True,True,True,LEFT,LEFT
290,50,UP,RIGHT,True,False,True,True,RIGHT,RIGHT
400,20,UP,RIGHT,True,False,True,True,RIGHT,RIGHT
30,440,DOWN,LEFT,False,True,True,True,LEFT,LEFT
160,410,UP,RIGHT,False,True,True,True,LEFT,LEFT
370,230,DOWN,RIGHT,False,True,True,True,LEFT,LEFT
320,270,UP,RIGHT,True,False,True,False,RIGHT,RIGHT
280,160,DOWN,EQUAL,True,False,True,True,RIGHT,RIGHT
440,80,EQUAL,RIGHT,True,False,True,True,RIGHT,RIGHT
260,150,UP,RIGHT,True,True,True,False,UP,UP
370,230,DOWN,LEFT,True,True,True,False,UP,UP
460,190,UP,RIGHT,True,False,True,True,RIGHT,RIGHT
160,410,UP,RIGHT,False,True,True,True,LEFT,LEFT
150,260,DOWN,LEFT,True,True,True,False,UP,UP
280,160,DOWN,RIGHT,True,False,True,True,RIGHT,RIGHT
80,410,DOWN,LEFT,False,True,True,True,LEFT,LEFT
320,270,UP,RIGHT,True,False,True,False,RIGHT,RIGHT
50,250,UP,LEFT,False,True,True,True,LEFT,LEFT
40,210,EQUAL,LEFT,False,True,True,True,LEFT,LEFT
40,400,DOWN,LEFT,False,True,True,True,LEFT,LEFT
350,310,UP,RIGHT,True,False,True,True,RIGHT,RIGHT
170,100,UP,RIGHT,True,True,False,True,DOWN,DOWN
180,360,DOWN,EQUAL,True,True,False,True,DOWN,DOWN
180,80,DOWN,RIGHT,True,True,False,True,DOWN,DOWN
270,380,UP,EQUAL,True,False,True,True,RIGHT,UP
80,410,DOWN,RIGHT,True,True,True,False,UP,UP
210,440,DOWN,RIGHT,True,False,True,True,RIGHT,RIGHT
120,70,UP,LEFT,False,True,True,True,LEFT,LEFT
420,20,DOWN,RIGHT,True,False,False,True,RIGHT,RIGHT
180,360,DOWN,EQUAL,True,True,False,True,DOWN,DOWN
220,70,EQUAL,RIGHT,True,False,True,True,RIGHT,RIGHT
260,150,UP,RIGHT,True,False,True,True,RIGHT,RIGHT
340,300,DOWN,LEFT,True,True,False,True,DOWN,DOWN
10,460,DOWN,LEFT,False,True,True,True,LEFT,LEFT
100,370,DOWN,LEFT,True,True,False,True,DOWN,DOWN
160,420,DOWN,RIGHT,True,True,False,True,DOWN,DOWN
280,160,DOWN,LEFT,True,True,False,True,DOWN,DOWN
100,10,UP,RIGHT,False,True,True,True,LEFT,LEFT
180,360,DOWN,EQUAL,True,True,False,True,DOWN,DOWN
390,260,UP,LEFT,False,True,True,True,LEFT,LEFT
120,70,UP,LEFT,False,True,True,True,LEFT,LEFT
40,400,DOWN,EQUAL,True,True,False,True,DOWN,DOWN
350,310,UP,RIGHT,True,False,True,True,RIGHT,RIGHT
10,110,UP,LEFT,True,True,False,True,DOWN,LEFT
380,200,UP,EQUAL,True,True,True,False,UP,UP
340,300,DOWN,LEFT,True,True,False,True,DOWN,DOWN
270,380,UP,RIGHT,True,False,True,True,RIGHT,RIGHT
40,240,DOWN,LEFT,False,True,True,True,LEFT,LEFT
350,310,UP,RIGHT,True,False,True,True,RIGHT,RIGHT
180,360,DOWN,RIGHT,True,False,True,True,RIGHT,RIGHT
10,110,UP,LEFT,True,True,False,True,DOWN,DOWN
130,70,UP,RIGHT,True,True,True,False,UP,UP
290,50,UP,EQUAL,True,True,True,False,UP,UP
220,70,EQUAL,RIGHT,True,False,True,True,RIGHT,RIGHT
280,160,DOWN,RIGHT,True,False,True,True,RIGHT,RIGHT
210,440,UP,LEFT,True,True,False,True,DOWN,LEFT
40,400,DOWN,LEFT,False,True,True,True,LEFT,LEFT
30,410,UP,LEFT,True,False,True,True,RIGHT,RIGHT
360,430,DOWN,LEFT,True,True,False,True,DOWN,DOWN
340,300,DOWN,LEFT,True,True,False,True,DOWN,DOWN
100,370,DOWN,LEFT,True,True,False,True,DOWN,DOWN
310,120,UP,LEFT,True,True,True,False,UP,UP
160,420,DOWN,RIGHT,True,True,False,True,DOWN,DOWN
130,70,UP,RIGHT,True,True,True,False,UP,UP
260,150,UP,RIGHT,True,False,True,True,RIGHT,RIGHT
380,200,UP,LEFT,False,True,True,True,LEFT,LEFT
210,440,DOWN,RIGHT,True,True,False,True,DOWN,DOWN
130,70,UP,EQUAL,True,True,True,False,UP,UP
50,250,DOWN,LEFT,True,True,False,True,DOWN,DOWN
120,70,UP,LEFT,False,True,True,True,LEFT,LEFT
20,330,EQUAL,LEFT,False,True,True,True,LEFT,LEFT
310,120,UP,LEFT,True,True,True,False,UP,UP
360,430,DOWN,LEFT,True,True,False,True,DOWN,DOWN
280,160,DOWN,LEFT,True,False,True,True,RIGHT,DOWN
390,260,UP,RIGHT,True,False,True,True,RIGHT,RIGHT
360,430,DOWN,RIGHT,False,True,True,True,LEFT,LEFT
210,440,UP,RIGHT,False,True,True,True,LEFT,LEFT
460,440,DOWN,RIGHT,True,False,True,True,RIGHT,RIGHT
280,160,DOWN,RIGHT,True,True,False,True,DOWN,RIGHT
310,120,UP,RIGHT,False,True,True,True,LEFT,UP
40,210,UP,LEFT,True,True,True,False,UP,UP
160,420,DOWN,LEFT,False,True,True,True,LEFT,LEFT
120,50,UP,LEFT,True,True,True,False,UP,UP
260,150,EQUAL,EQUAL,True,True,False,True,DOWN,DOWN
20,330,EQUAL,LEFT,False,True,True,True,LEFT,LEFT
190,190,DOWN,EQUAL,True,True,False,True,DOWN,DOWN
40,210,EQUAL,LEFT,False,True,True,True,LEFT,LEFT
80,410,DOWN,LEFT,True,False,True,True,RIGHT,DOWN
280,160,DOWN,RIGHT,True,True,True,False,UP,RIGHT
370,230,DOWN,EQUAL,True,False,False,True,RIGHT,DOWN
100,50,UP,LEFT,False,True,True,True,LEFT,LEFT
40,240,DOWN,LEFT,False,True,True,True,LEFT,LEFT
30,410,DOWN,LEFT,False,True,True,True,LEFT,LEFT
460,440,DOWN,RIGHT,True,True,False,True,DOWN,DOWN
30,410,EQUAL,LEFT,False,True,True,False,LEFT,LEFT
160,420,DOWN,RIGHT,True,True,False,True,DOWN,DOWN
100,50,UP,EQUAL,True,True,True,False,UP,UP
430,320,DOWN,RIGHT,True,True,False,True,DOWN,DOWN
40,240,EQUAL,LEFT,True,True,True,False,UP,UP
280,160,DOWN,RIGHT,True,False,True,True,RIGHT,DOWN
180,360,DOWN,EQUAL,True,True,False,True,DOWN,DOWN
460,440,EQUAL,EQUAL,False,True,True,True,LEFT,LEFT
100,50,UP,LEFT,False,True,True,True,LEFT,LEFT
440,370,DOWN,EQUAL,True,True,False,True,DOWN,DOWN
10,460,EQUAL,EQUAL,False,True,True,True,LEFT,LEFT
270,380,UP,RIGHT,True,False,True,True,RIGHT,RIGHT
430,320,DOWN,RIGHT,True,False,True,True,RIGHT,RIGHT
100,10,UP,RIGHT,True,True,True,False,UP,UP
450,270,DOWN,RIGHT,True,False,True,True,RIGHT,RIGHT
10,110,UP,EQUAL,False,True,True,False,UP,UP
370,230,DOWN,RIGHT,True,False,False,True,RIGHT,RIGHT
170,100,UP,EQUAL,True,True,True,False,UP,UP
110,440,DOWN,RIGHT,True,True,False,True,DOWN,DOWN
390,80,UP,RIGHT,True,True,True,False,UP,UP
390,170,DOWN,LEFT,True,True,False,True,DOWN,DOWN
130,10,EQUAL,LEFT,True,True,True,False,UP,UP
180,80,EQUAL,RIGHT,True,False,True,True,RIGHT,RIGHT
320,270,UP,EQUAL,True,True,True,False,UP,UP
60,180,DOWN,LEFT,True,True,True,False,UP,UP
350,310,UP,RIGHT,True,False,True,True,RIGHT,RIGHT
170,100,UP,LEFT,True,True,True,False,UP,UP
100,370,DOWN,LEFT,True,True,False,True,DOWN,DOWN
390,80,UP,RIGHT,True,True,True,False,UP,UP
390,80,DOWN,RIGHT,True,False,True,True,RIGHT,RIGHT
40,210,EQUAL,LEFT,False,True,True,True,LEFT,LEFT
180,360,DOWN,RIGHT,True,False,True,True,RIGHT,RIGHT
370,230,DOWN,EQUAL,True,True,False,True,DOWN,DOWN
320,270,UP,RIGHT,True,False,True,False,RIGHT,RIGHT
40,240,UP,LEFT,True,False,False,True,RIGHT,RIGHT
190,190,DOWN,LEFT,False,True,True,True,LEFT,LEFT
10,460,DOWN,EQUAL,True,True,False,True,DOWN,DOWN
20,330,DOWN,LEFT,True,True,False,True,DOWN,DOWN
130,70,UP,RIGHT,True,True,True,False,UP,UP
100,370,EQUAL,LEFT,False,True,True,True,LEFT,LEFT
180,80,EQUAL,EQUAL,False,True,True,True,LEFT,LEFT
280,450,DOWN,LEFT,True,True,False,True,DOWN,DOWN
80,410,DOWN,EQUAL,True,True,False,True,DOWN,DOWN
460,190,UP,RIGHT,True,True,False,True,DOWN,RIGHT
40,210,UP,LEFT,True,True,True,False,UP,UP
100,10,UP,RIGHT,True,True,True,False,UP,UP
80,410,DOWN,RIGHT,True,False,True,True,RIGHT,RIGHT
10,460,DOWN,EQUAL,True,True,False,True,DOWN,DOWN
370,230,DOWN,RIGHT,True,False,False,True,RIGHT,RIGHT
120,70,EQUAL,EQUAL,False,True,True,True,LEFT,LEFT
310,120,UP,RIGHT,True,False,True,True,RIGHT,RIGHT
130,10,EQUAL,RIGHT,True,True,False,True,DOWN,DOWN
100,370,EQUAL,LEFT,True,True,False,True,DOWN,LEFT
180,360,DOWN,EQUAL,True,True,False,True,DOWN,DOWN
110,440,DOWN,RIGHT,True,True,False,True,DOWN,DOWN
180,360,DOWN,RIGHT,True,False,True,True,RIGHT,RIGHT
120,80,UP,LEFT,True,True,False,True,DOWN,DOWN
280,450,EQUAL,LEFT,False,True,True,True,LEFT,LEFT
430,320,DOWN,RIGHT,True,False,True,True,RIGHT,RIGHT
100,50,UP,EQUAL,True,True,True,False,UP,UP
420,20,DOWN,RIGHT,True,False,False,True,RIGHT,RIGHT
100,10,UP,LEFT,True,True,True,False,UP,UP
30,440,DOWN,EQUAL,True,True,False,True,DOWN,DOWN
110,440,DOWN,EQUAL,False,True,True,True,LEFT,LEFT
170,100,DOWN,LEFT,False,True,True,True,LEFT,LEFT
170,100,DOWN,RIGHT,False,True,True,True,LEFT,DOWN
280,160,DOWN,RIGHT,True,False,True,True,RIGHT,RIGHT
460,440,DOWN,RIGHT,True,True,False,True,DOWN,DOWN
320,270,UP,RIGHT,True,False,True,False,RIGHT,RIGHT
50,250,DOWN,LEFT,True,True,False,True,DOWN,DOWN
320,270,UP,RIGHT,True,False,True,False,RIGHT,RIGHT
10,460,DOWN,LEFT,False,True,True,True,LEFT,LEFT
210,440,UP,RIGHT,False,True,True,True,LEFT,LEFT
280,160,DOWN,RIGHT,True,True,False,True,DOWN,DOWN
450,270,DOWN,EQUAL,True,True,False,True,DOWN,DOWN
170,100,DOWN,LEFT,False,True,True,True,LEFT,LEFT
10,460,DOWN,EQUAL,True,True,False,True,DOWN,DOWN
430,320,DOWN,RIGHT,True,False,True,True,RIGHT,RIGHT
40,240,DOWN,LEFT,False,True,True,True,LEFT,LEFT
60,180,EQUAL,EQUAL,True,True,True,False,UP,UP
390,80,DOWN,RIGHT,True,False,True,True,RIGHT,RIGHT
420,20,DOWN,RIGHT,True,True,False,False,UP,RIGHT
320,270,UP,RIGHT,True,False,True,False,RIGHT,RIGHT
460,440,DOWN,EQUAL,True,False,True,True,RIGHT,DOWN
340,300,DOWN,LEFT,True,True,False,True,DOWN,DOWN
80,410,DOWN,RIGHT,True,True,True,False,UP,UP
400,20,EQUAL,RIGHT,True,False,True,True,RIGHT,RIGHT
390,260,UP,EQUAL,True,False,True,True,RIGHT,UP
160,420,DOWN,RIGHT,False,True,True,True,LEFT,LEFT
320,270,UP,EQUAL,True,True,True,False,UP,UP
30,440,DOWN,LEFT,False,True,True,True,LEFT,LEFT
260,150,EQUAL,RIGHT,True,True,False,True,DOWN,RIGHT
460,440,DOWN,RIGHT,True,True,False,True,DOWN,DOWN
280,210,UP,EQUAL,True,True,True,False,UP,UP
440,370,DOWN,RIGHT,True,False,True,True,RIGHT,RIGHT
370,230,DOWN,RIGHT,True,True,False,True,DOWN,DOWN
100,50,UP,LEFT,True,True,True,False,UP,UP
390,80,DOWN,RIGHT,True,False,True,True,RIGHT,RIGHT
120,50,DOWN,LEFT,False,True,True,True,LEFT,LEFT
460,20,UP,EQUAL,True,True,True,False,UP,UP
160,420,DOWN,RIGHT,False,True,True,True,LEFT,DOWN
120,50,DOWN,LEFT,False,True,True,True,LEFT,LEFT
350,310,UP,EQUAL,True,True,True,False,UP,UP
120,50,DOWN,LEFT,False,True,True,True,LEFT,LEFT
60,180,DOWN,EQUAL,False,True,True,True,LEFT,DOWN
280,160,UP,RIGHT,False,True,True,True,LEFT,LEFT
100,10,UP,LEFT,True,True,True,False,UP,UP
360,430,DOWN,RIGHT,False,True,True,True,LEFT,LEFT
130,70,UP,RIGHT,True,False,True,True,RIGHT,RIGHT
400,20,DOWN,RIGHT,True,False,True,True,RIGHT,RIGHT
