@relation snake_game

@attribute snake_pos_x NUMERIC
@attribute snake_pos_y NUMERIC
@attribute snake_pos_x_next NUMERIC
@attribute snake_pos_y_next NUMERIC
@attribute food_pos_x NUMERIC
@attribute food_pos_y NUMERIC
@attribute food_side_y {UP, DOWN, EQUAL}
@attribute food_side_x {RIGHT, LEFT, EQUAL}
@attribute manhattan_distance NUMERIC
@attribute next_manhattan_distance NUMERIC
@attribute large_snake NUMERIC
@attribute right_safe {True, False}
@attribute left_safe {True, False}
@attribute up_safe {True, False}
@attribute down_safe {True, False}
@attribute cycle {True, False}
@attribute body_indirection {True, False}
@attribute previous_direction {UP, DOWN, LEFT, RIGHT}
@attribute direction {UP, DOWN, LEFT, RIGHT}
@attribute score NUMERIC
@attribute next_score NUMERIC

@data
110,50,120,50,360,270,DOWN,RIGHT,470,460,3,True,False,True,True,False,False,RIGHT,RIGHT,-1,-2
110,50,120,50,360,270,DOWN,RIGHT,470,460,3,True,False,True,True,False,False,RIGHT,RIGHT,-1,-2
120,50,130,50,360,270,DOWN,RIGHT,460,450,3,True,False,True,True,False,False,RIGHT,RIGHT,-2,-3
120,50,130,50,360,270,DOWN,RIGHT,460,450,3,True,False,True,True,False,False,RIGHT,RIGHT,-2,-3
130,50,140,50,360,270,DOWN,RIGHT,450,440,3,True,False,True,True,False,False,RIGHT,RIGHT,-3,-4
130,50,140,50,360,270,DOWN,RIGHT,450,440,3,True,False,True,True,False,False,RIGHT,RIGHT,-3,-4
140,50,150,50,360,270,DOWN,RIGHT,440,430,3,True,False,True,True,False,False,RIGHT,RIGHT,-4,-5
140,50,150,50,360,270,DOWN,RIGHT,440,430,3,True,False,True,True,False,False,RIGHT,RIGHT,-4,-5
150,50,160,50,360,270,DOWN,RIGHT,430,420,3,True,False,True,True,False,False,RIGHT,RIGHT,-5,-6
150,50,160,50,360,270,DOWN,RIGHT,430,420,3,True,False,True,True,False,False,RIGHT,RIGHT,-5,-6
160,50,170,50,360,270,DOWN,RIGHT,420,410,3,True,False,True,True,False,False,RIGHT,RIGHT,-6,-7
160,50,170,50,360,270,DOWN,RIGHT,420,410,3,True,False,True,True,False,False,RIGHT,RIGHT,-6,-7
170,50,180,50,360,270,DOWN,RIGHT,410,400,3,True,False,True,True,False,False,RIGHT,RIGHT,-7,-8
170,50,180,50,360,270,DOWN,RIGHT,410,400,3,True,False,True,True,False,False,RIGHT,RIGHT,-7,-8
180,50,190,50,360,270,DOWN,RIGHT,400,390,3,True,False,True,True,False,False,RIGHT,RIGHT,-8,-9
180,50,190,50,360,270,DOWN,RIGHT,400,390,3,True,False,True,True,False,False,RIGHT,RIGHT,-8,-9
190,50,200,50,360,270,DOWN,RIGHT,390,380,3,True,False,True,True,False,False,RIGHT,RIGHT,-9,-10
190,50,200,50,360,270,DOWN,RIGHT,390,380,3,True,False,True,True,False,False,RIGHT,RIGHT,-9,-10
200,50,210,50,360,270,DOWN,RIGHT,380,370,3,True,False,True,True,False,False,RIGHT,RIGHT,-10,-11
200,50,210,50,360,270,DOWN,RIGHT,380,370,3,True,False,True,True,False,False,RIGHT,RIGHT,-10,-11
210,50,220,50,360,270,DOWN,RIGHT,370,360,3,True,False,True,True,False,False,RIGHT,RIGHT,-11,-12
210,50,220,50,360,270,DOWN,RIGHT,370,360,3,True,False,True,True,False,False,RIGHT,RIGHT,-11,-12
220,50,230,50,360,270,DOWN,RIGHT,360,350,3,True,False,True,True,False,False,RIGHT,RIGHT,-12,-13
220,50,230,50,360,270,DOWN,RIGHT,360,350,3,True,False,True,True,False,False,RIGHT,RIGHT,-12,-13
230,50,240,50,360,270,DOWN,RIGHT,350,340,3,True,False,True,True,False,False,RIGHT,RIGHT,-13,-14
230,50,240,50,360,270,DOWN,RIGHT,350,340,3,True,False,True,True,False,False,RIGHT,RIGHT,-13,-14
240,50,250,50,360,270,DOWN,RIGHT,340,330,3,True,False,True,True,False,False,RIGHT,RIGHT,-14,-15
240,50,250,50,360,270,DOWN,RIGHT,340,330,3,True,False,True,True,False,False,RIGHT,RIGHT,-14,-15
250,50,260,50,360,270,DOWN,RIGHT,330,320,3,True,False,True,True,False,False,RIGHT,RIGHT,-15,-16
250,50,260,50,360,270,DOWN,RIGHT,330,320,3,True,False,True,True,False,False,RIGHT,RIGHT,-15,-16
260,50,270,50,360,270,DOWN,RIGHT,320,310,3,True,False,True,True,False,False,RIGHT,RIGHT,-16,-17
260,50,270,50,360,270,DOWN,RIGHT,320,310,3,True,False,True,True,False,False,RIGHT,RIGHT,-16,-17
270,50,280,50,360,270,DOWN,RIGHT,310,300,3,True,False,True,True,False,False,RIGHT,RIGHT,-17,-18
270,50,280,50,360,270,DOWN,RIGHT,310,300,3,True,False,True,True,False,False,RIGHT,RIGHT,-17,-18
280,50,290,50,360,270,DOWN,RIGHT,300,290,3,True,False,True,True,False,False,RIGHT,RIGHT,-18,-19
280,50,290,50,360,270,DOWN,RIGHT,300,290,3,True,False,True,True,False,False,RIGHT,RIGHT,-18,-19
290,50,300,50,360,270,DOWN,RIGHT,290,280,3,True,False,True,True,False,False,RIGHT,RIGHT,-19,-20
290,50,300,50,360,270,DOWN,RIGHT,290,280,3,True,False,True,True,False,False,RIGHT,RIGHT,-19,-20
300,50,310,50,360,270,DOWN,RIGHT,280,270,3,True,False,True,True,False,False,RIGHT,RIGHT,-20,-21
300,50,310,50,360,270,DOWN,RIGHT,280,270,3,True,False,True,True,False,False,RIGHT,RIGHT,-20,-21
310,50,320,50,360,270,DOWN,RIGHT,270,260,3,True,False,True,True,False,False,RIGHT,RIGHT,-21,-22
310,50,320,50,360,270,DOWN,RIGHT,270,260,3,True,False,True,True,False,False,RIGHT,RIGHT,-21,-22
320,50,330,50,360,270,DOWN,RIGHT,260,250,3,True,False,True,True,False,False,RIGHT,RIGHT,-22,-23
320,50,330,50,360,270,DOWN,RIGHT,260,250,3,True,False,True,True,False,False,RIGHT,RIGHT,-22,-23
330,50,340,50,360,270,DOWN,RIGHT,250,240,3,True,False,True,True,False,False,RIGHT,RIGHT,-23,-24
330,50,340,50,360,270,DOWN,RIGHT,250,240,3,True,False,True,True,False,False,RIGHT,RIGHT,-23,-24
340,50,350,50,360,270,DOWN,RIGHT,240,230,3,True,False,True,True,False,False,RIGHT,RIGHT,-24,-25
340,50,350,50,360,270,DOWN,RIGHT,240,230,3,True,False,True,True,False,False,RIGHT,RIGHT,-24,-25
350,50,360,50,360,270,DOWN,RIGHT,230,220,3,True,False,True,True,False,False,RIGHT,RIGHT,-25,-26
350,50,360,50,360,270,DOWN,RIGHT,230,220,3,True,False,True,True,False,False,RIGHT,RIGHT,-25,-26
360,50,360,60,360,270,DOWN,EQUAL,220,210,3,True,False,True,True,False,False,RIGHT,DOWN,-26,-27
360,50,360,60,360,270,DOWN,EQUAL,220,210,3,True,False,True,True,False,False,DOWN,DOWN,-26,-27
360,60,360,70,360,270,DOWN,EQUAL,210,200,3,True,True,False,True,False,False,DOWN,DOWN,-27,-28
360,60,360,70,360,270,DOWN,EQUAL,210,200,3,True,True,False,True,False,False,DOWN,DOWN,-27,-28
360,70,360,80,360,270,DOWN,EQUAL,200,190,3,True,True,False,True,False,False,DOWN,DOWN,-28,-29
360,70,360,80,360,270,DOWN,EQUAL,200,190,3,True,True,False,True,False,False,DOWN,DOWN,-28,-29
360,80,360,90,360,270,DOWN,EQUAL,190,180,3,True,True,False,True,False,False,DOWN,DOWN,-29,-30
360,80,360,90,360,270,DOWN,EQUAL,190,180,3,True,True,False,True,False,False,DOWN,DOWN,-29,-30
360,90,360,100,360,270,DOWN,EQUAL,180,170,3,True,True,False,True,False,False,DOWN,DOWN,-30,-31
360,90,360,100,360,270,DOWN,EQUAL,180,170,3,True,True,False,True,False,False,DOWN,DOWN,-30,-31
360,100,360,110,360,270,DOWN,EQUAL,170,160,3,True,True,False,True,False,False,DOWN,DOWN,-31,-32
360,100,360,110,360,270,DOWN,EQUAL,170,160,3,True,True,False,True,False,False,DOWN,DOWN,-31,-32
360,110,360,120,360,270,DOWN,EQUAL,160,150,3,True,True,False,True,False,False,DOWN,DOWN,-32,-33
360,110,360,120,360,270,DOWN,EQUAL,160,150,3,True,True,False,True,False,False,DOWN,DOWN,-32,-33
360,120,360,130,360,270,DOWN,EQUAL,150,140,3,True,True,False,True,False,False,DOWN,DOWN,-33,-34
360,120,360,130,360,270,DOWN,EQUAL,150,140,3,True,True,False,True,False,False,DOWN,DOWN,-33,-34
360,130,360,140,360,270,DOWN,EQUAL,140,130,3,True,True,False,True,False,False,DOWN,DOWN,-34,-35
360,130,360,140,360,270,DOWN,EQUAL,140,130,3,True,True,False,True,False,False,DOWN,DOWN,-34,-35
360,140,360,150,360,270,DOWN,EQUAL,130,120,3,True,True,False,True,False,False,DOWN,DOWN,-35,-36
360,140,360,150,360,270,DOWN,EQUAL,130,120,3,True,True,False,True,False,False,DOWN,DOWN,-35,-36
360,150,360,160,360,270,DOWN,EQUAL,120,110,3,True,True,False,True,False,False,DOWN,DOWN,-36,-37
360,150,360,160,360,270,DOWN,EQUAL,120,110,3,True,True,False,True,False,False,DOWN,DOWN,-36,-37
360,160,360,170,360,270,DOWN,EQUAL,110,100,3,True,True,False,True,False,False,DOWN,DOWN,-37,-38
360,160,360,170,360,270,DOWN,EQUAL,110,100,3,True,True,False,True,False,False,DOWN,DOWN,-37,-38
360,170,360,180,360,270,DOWN,EQUAL,100,90,3,True,True,False,True,False,False,DOWN,DOWN,-38,-39
360,170,360,180,360,270,DOWN,EQUAL,100,90,3,True,True,False,True,False,False,DOWN,DOWN,-38,-39
360,180,360,190,360,270,DOWN,EQUAL,90,80,3,True,True,False,True,False,False,DOWN,DOWN,-39,-40
360,180,360,190,360,270,DOWN,EQUAL,90,80,3,True,True,False,True,False,False,DOWN,DOWN,-39,-40
360,190,360,200,360,270,DOWN,EQUAL,80,70,3,True,True,False,True,False,False,DOWN,DOWN,-40,-41
360,190,360,200,360,270,DOWN,EQUAL,80,70,3,True,True,False,True,False,False,DOWN,DOWN,-40,-41
360,200,360,210,360,270,DOWN,EQUAL,70,60,3,True,True,False,True,False,False,DOWN,DOWN,-41,-42
360,200,360,210,360,270,DOWN,EQUAL,70,60,3,True,True,False,True,False,False,DOWN,DOWN,-41,-42
360,210,360,220,360,270,DOWN,EQUAL,60,50,3,True,True,False,True,False,False,DOWN,DOWN,-42,-43
360,210,360,220,360,270,DOWN,EQUAL,60,50,3,True,True,False,True,False,False,DOWN,DOWN,-42,-43
360,220,360,230,360,270,DOWN,EQUAL,50,40,3,True,True,False,True,False,False,DOWN,DOWN,-43,-44
360,220,360,230,360,270,DOWN,EQUAL,50,40,3,True,True,False,True,False,False,DOWN,DOWN,-43,-44
360,230,360,240,360,270,DOWN,EQUAL,40,30,3,True,True,False,True,False,False,DOWN,DOWN,-44,-45
360,230,360,240,360,270,DOWN,EQUAL,40,30,3,True,True,False,True,False,False,DOWN,DOWN,-44,-45
360,240,360,250,360,270,DOWN,EQUAL,30,20,3,True,True,False,True,False,False,DOWN,DOWN,-45,-46
360,240,360,250,360,270,DOWN,EQUAL,30,20,3,True,True,False,True,False,False,DOWN,DOWN,-45,-46
360,250,360,260,360,270,DOWN,EQUAL,20,10,3,True,True,False,True,False,False,DOWN,DOWN,-46,-47
360,250,360,260,360,270,DOWN,EQUAL,20,10,3,True,True,False,True,False,False,DOWN,DOWN,-46,-47
360,260,360,270,360,270,DOWN,EQUAL,10,0,3,True,True,False,True,False,False,DOWN,DOWN,-47,53
360,260,360,270,360,270,DOWN,EQUAL,10,0,3,True,True,False,True,False,False,DOWN,DOWN,-47,53
360,270,360,280,270,220,EQUAL,EQUAL,140,150,4,True,True,False,True,False,False,DOWN,DOWN,53,52
360,270,360,280,270,220,EQUAL,EQUAL,140,150,4,True,True,False,True,False,False,DOWN,DOWN,53,52
360,280,360,290,270,220,UP,LEFT,150,160,4,True,True,False,True,False,False,DOWN,DOWN,52,51
360,280,360,290,270,220,UP,LEFT,150,160,4,True,True,False,True,False,False,DOWN,DOWN,52,51
360,290,360,300,270,220,UP,LEFT,160,170,4,True,True,False,True,False,False,DOWN,DOWN,51,50
360,290,360,300,270,220,UP,LEFT,160,170,4,True,True,False,True,False,False,DOWN,DOWN,51,50
360,300,350,300,270,220,UP,LEFT,170,160,4,True,True,False,True,False,False,DOWN,LEFT,50,49
360,300,350,300,270,220,UP,LEFT,170,160,4,True,True,False,True,False,False,LEFT,LEFT,50,49
350,300,340,300,270,220,UP,LEFT,160,150,4,False,True,True,True,False,False,LEFT,LEFT,49,48
350,300,340,300,270,220,UP,LEFT,160,150,4,False,True,True,True,False,False,LEFT,LEFT,49,48
340,300,330,300,270,220,UP,LEFT,150,140,4,False,True,True,True,False,False,LEFT,LEFT,48,47
340,300,330,300,270,220,UP,LEFT,150,140,4,False,True,True,True,False,False,LEFT,LEFT,48,47
330,300,320,300,270,220,UP,LEFT,140,130,4,False,True,True,True,False,False,LEFT,LEFT,47,46
330,300,320,300,270,220,UP,LEFT,140,130,4,False,True,True,True,False,False,LEFT,LEFT,47,46
320,300,310,300,270,220,UP,LEFT,130,120,4,False,True,True,True,False,False,LEFT,LEFT,46,45
320,300,310,300,270,220,UP,LEFT,130,120,4,False,True,True,True,False,False,LEFT,LEFT,46,45
310,300,300,300,270,220,UP,LEFT,120,110,4,False,True,True,True,False,False,LEFT,LEFT,45,44
310,300,300,300,270,220,UP,LEFT,120,110,4,False,True,True,True,False,False,LEFT,LEFT,45,44
300,300,290,300,270,220,UP,LEFT,110,100,4,False,True,True,True,False,False,LEFT,LEFT,44,43
300,300,290,300,270,220,UP,LEFT,110,100,4,False,True,True,True,False,False,LEFT,LEFT,44,43
290,300,280,300,270,220,UP,LEFT,100,90,4,False,True,True,True,False,False,LEFT,LEFT,43,42
290,300,280,300,270,220,UP,LEFT,100,90,4,False,True,True,True,False,False,LEFT,LEFT,43,42
280,300,270,300,270,220,UP,LEFT,90,80,4,False,True,True,True,False,False,LEFT,LEFT,42,41
280,300,270,300,270,220,UP,LEFT,90,80,4,False,True,True,True,False,False,LEFT,LEFT,42,41
270,300,270,290,270,220,UP,EQUAL,80,70,4,False,True,True,True,False,False,LEFT,UP,41,40
270,300,270,290,270,220,UP,EQUAL,80,70,4,False,True,True,True,True,False,UP,UP,41,40
270,290,270,280,270,220,UP,EQUAL,70,60,4,True,True,True,False,True,False,UP,UP,40,39
270,290,270,280,270,220,UP,EQUAL,70,60,4,True,True,True,False,True,False,UP,UP,40,39
270,280,270,270,270,220,UP,EQUAL,60,50,4,True,True,True,False,True,False,UP,UP,39,38
270,280,270,270,270,220,UP,EQUAL,60,50,4,True,True,True,False,True,False,UP,UP,39,38
270,270,270,260,270,220,UP,EQUAL,50,40,4,True,True,True,False,True,False,UP,UP,38,37
270,270,270,260,270,220,UP,EQUAL,50,40,4,True,True,True,False,True,False,UP,UP,38,37
270,260,270,250,270,220,UP,EQUAL,40,30,4,True,True,True,False,True,False,UP,UP,37,36
270,260,270,250,270,220,UP,EQUAL,40,30,4,True,True,True,False,True,False,UP,UP,37,36
270,250,270,240,270,220,UP,EQUAL,30,20,4,True,True,True,False,True,False,UP,UP,36,35
270,250,270,240,270,220,UP,EQUAL,30,20,4,True,True,True,False,True,False,UP,UP,36,35
270,240,270,230,270,220,UP,EQUAL,20,10,4,True,True,True,False,True,False,UP,UP,35,34
270,240,270,230,270,220,UP,EQUAL,20,10,4,True,True,True,False,True,False,UP,UP,35,34
270,230,270,220,270,220,UP,EQUAL,10,0,4,True,True,True,False,True,False,UP,UP,34,134
270,230,270,220,270,220,UP,EQUAL,10,0,4,True,True,True,False,True,False,UP,UP,34,134
270,220,270,210,180,150,EQUAL,EQUAL,160,150,5,True,True,True,False,True,False,UP,UP,134,133
270,220,270,210,180,150,EQUAL,EQUAL,160,150,5,True,True,True,False,True,False,UP,UP,134,133
270,210,270,200,180,150,UP,LEFT,150,140,5,True,True,True,False,True,False,UP,UP,133,132
270,210,270,200,180,150,UP,LEFT,150,140,5,True,True,True,False,True,False,UP,UP,133,132
270,200,270,190,180,150,UP,LEFT,140,130,5,True,True,True,False,True,False,UP,UP,132,131
270,200,270,190,180,150,UP,LEFT,140,130,5,True,True,True,False,True,False,UP,UP,132,131
270,190,270,180,180,150,UP,LEFT,130,120,5,True,True,True,False,True,False,UP,UP,131,130
270,190,270,180,180,150,UP,LEFT,130,120,5,True,True,True,False,True,False,UP,UP,131,130
270,180,260,180,180,150,UP,LEFT,120,110,5,True,True,True,False,True,False,UP,LEFT,130,129
270,180,260,180,180,150,UP,LEFT,120,110,5,True,True,True,False,False,False,LEFT,LEFT,130,129
260,180,250,180,180,150,UP,LEFT,110,100,5,False,True,True,True,False,False,LEFT,LEFT,129,128
260,180,250,180,180,150,UP,LEFT,110,100,5,False,True,True,True,False,False,LEFT,LEFT,129,128
250,180,240,180,180,150,UP,LEFT,100,90,5,False,True,True,True,False,False,LEFT,LEFT,128,127
250,180,240,180,180,150,UP,LEFT,100,90,5,False,True,True,True,False,False,LEFT,LEFT,128,127
240,180,230,180,180,150,UP,LEFT,90,80,5,False,True,True,True,False,False,LEFT,LEFT,127,126
240,180,230,180,180,150,UP,LEFT,90,80,5,False,True,True,True,False,False,LEFT,LEFT,127,126
230,180,220,180,180,150,UP,LEFT,80,70,5,False,True,True,True,False,False,LEFT,LEFT,126,125
230,180,220,180,180,150,UP,LEFT,80,70,5,False,True,True,True,False,False,LEFT,LEFT,126,125
220,180,210,180,180,150,UP,LEFT,70,60,5,False,True,True,True,False,False,LEFT,LEFT,125,124
220,180,210,180,180,150,UP,LEFT,70,60,5,False,True,True,True,False,False,LEFT,LEFT,125,124
210,180,200,180,180,150,UP,LEFT,60,50,5,False,True,True,True,False,False,LEFT,LEFT,124,123
210,180,200,180,180,150,UP,LEFT,60,50,5,False,True,True,True,False,False,LEFT,LEFT,124,123
200,180,190,180,180,150,UP,LEFT,50,40,5,False,True,True,True,False,False,LEFT,LEFT,123,122
200,180,190,180,180,150,UP,LEFT,50,40,5,False,True,True,True,False,False,LEFT,LEFT,123,122
190,180,180,180,180,150,UP,LEFT,40,30,5,False,True,True,True,False,False,LEFT,LEFT,122,121
190,180,180,180,180,150,UP,LEFT,40,30,5,False,True,True,True,False,False,LEFT,LEFT,122,121
180,180,180,170,180,150,UP,EQUAL,30,20,5,False,True,True,True,False,False,LEFT,UP,121,120
180,180,180,170,180,150,UP,EQUAL,30,20,5,False,True,True,True,False,False,UP,UP,121,120
180,170,180,160,180,150,UP,EQUAL,20,10,5,True,True,True,False,False,False,UP,UP,120,119
180,170,180,160,180,150,UP,EQUAL,20,10,5,True,True,True,False,False,False,UP,UP,120,119
180,160,180,150,180,150,UP,EQUAL,10,0,5,True,True,True,False,False,False,UP,UP,119,219
180,160,180,150,180,150,UP,EQUAL,10,0,5,True,True,True,False,False,False,UP,UP,119,219
180,150,180,140,80,350,EQUAL,EQUAL,300,310,6,True,True,True,False,False,False,UP,UP,219,218
180,150,180,140,80,350,EQUAL,EQUAL,300,310,6,True,True,True,False,False,False,UP,UP,219,218
180,140,180,130,80,350,DOWN,LEFT,310,320,6,True,True,True,False,False,False,UP,UP,218,217
180,140,180,130,80,350,DOWN,LEFT,310,320,6,True,True,True,False,False,False,UP,UP,218,217
180,130,180,120,80,350,DOWN,LEFT,320,330,6,True,True,True,False,False,False,UP,UP,217,216
180,130,180,120,80,350,DOWN,LEFT,320,330,6,True,True,True,False,False,False,UP,UP,217,216
180,120,180,110,80,350,DOWN,LEFT,330,340,6,True,True,True,False,False,False,UP,UP,216,215
180,120,180,110,80,350,DOWN,LEFT,330,340,6,True,True,True,False,False,False,UP,UP,216,215
180,110,170,110,80,350,DOWN,LEFT,340,330,6,True,True,True,False,False,False,UP,LEFT,215,214
180,110,170,110,80,350,DOWN,LEFT,340,330,6,True,True,True,False,False,False,LEFT,LEFT,215,214
170,110,160,110,80,350,DOWN,LEFT,330,320,6,False,True,True,True,False,False,LEFT,LEFT,214,213
170,110,160,110,80,350,DOWN,LEFT,330,320,6,False,True,True,True,False,False,LEFT,LEFT,214,213
160,110,150,110,80,350,DOWN,LEFT,320,310,6,False,True,True,True,False,False,LEFT,LEFT,213,212
160,110,150,110,80,350,DOWN,LEFT,320,310,6,False,True,True,True,False,False,LEFT,LEFT,213,212
150,110,140,110,80,350,DOWN,LEFT,310,300,6,False,True,True,True,False,False,LEFT,LEFT,212,211
150,110,140,110,80,350,DOWN,LEFT,310,300,6,False,True,True,True,False,False,LEFT,LEFT,212,211
140,110,130,110,80,350,DOWN,LEFT,300,290,6,False,True,True,True,False,False,LEFT,LEFT,211,210
140,110,130,110,80,350,DOWN,LEFT,300,290,6,False,True,True,True,False,False,LEFT,LEFT,211,210
130,110,120,110,80,350,DOWN,LEFT,290,280,6,False,True,True,True,False,False,LEFT,LEFT,210,209
130,110,120,110,80,350,DOWN,LEFT,290,280,6,False,True,True,True,False,False,LEFT,LEFT,210,209
120,110,110,110,80,350,DOWN,LEFT,280,270,6,False,True,True,True,False,False,LEFT,LEFT,209,208
120,110,110,110,80,350,DOWN,LEFT,280,270,6,False,True,True,True,False,False,LEFT,LEFT,209,208
110,110,100,110,80,350,DOWN,LEFT,270,260,6,False,True,True,True,False,False,LEFT,LEFT,208,207
110,110,100,110,80,350,DOWN,LEFT,270,260,6,False,True,True,True,False,False,LEFT,LEFT,208,207
100,110,90,110,80,350,DOWN,LEFT,260,250,6,False,True,True,True,False,False,LEFT,LEFT,207,206
100,110,90,110,80,350,DOWN,LEFT,260,250,6,False,True,True,True,False,False,LEFT,LEFT,207,206
90,110,80,110,80,350,DOWN,LEFT,250,240,6,False,True,True,True,False,False,LEFT,LEFT,206,205
90,110,80,110,80,350,DOWN,LEFT,250,240,6,False,True,True,True,False,False,LEFT,LEFT,206,205
80,110,70,110,80,350,DOWN,EQUAL,240,250,6,False,True,True,True,False,False,LEFT,LEFT,205,204
80,110,70,110,80,350,DOWN,EQUAL,240,250,6,False,True,True,True,False,False,LEFT,LEFT,205,204
70,110,70,120,80,350,DOWN,RIGHT,250,240,6,False,True,True,True,False,False,LEFT,DOWN,204,203
70,110,70,120,80,350,DOWN,RIGHT,250,240,6,False,True,True,True,False,False,DOWN,DOWN,204,203
70,120,70,130,80,350,DOWN,RIGHT,240,230,6,True,True,False,True,False,False,DOWN,DOWN,203,202
70,120,70,130,80,350,DOWN,RIGHT,240,230,6,True,True,False,True,False,False,DOWN,DOWN,203,202
70,130,70,140,80,350,DOWN,RIGHT,230,220,6,True,True,False,True,False,False,DOWN,DOWN,202,201
70,130,70,140,80,350,DOWN,RIGHT,230,220,6,True,True,False,True,False,False,DOWN,DOWN,202,201
70,140,70,150,80,350,DOWN,RIGHT,220,210,6,True,True,False,True,False,False,DOWN,DOWN,201,200
70,140,70,150,80,350,DOWN,RIGHT,220,210,6,True,True,False,True,False,False,DOWN,DOWN,201,200
70,150,70,160,80,350,DOWN,RIGHT,210,200,6,True,True,False,True,False,False,DOWN,DOWN,200,199
70,150,70,160,80,350,DOWN,RIGHT,210,200,6,True,True,False,True,False,False,DOWN,DOWN,200,199
70,160,70,170,80,350,DOWN,RIGHT,200,190,6,True,True,False,True,False,False,DOWN,DOWN,199,198
70,160,70,170,80,350,DOWN,RIGHT,200,190,6,True,True,False,True,False,False,DOWN,DOWN,199,198
70,170,70,180,80,350,DOWN,RIGHT,190,180,6,True,True,False,True,False,False,DOWN,DOWN,198,197
70,170,70,180,80,350,DOWN,RIGHT,190,180,6,True,True,False,True,False,False,DOWN,DOWN,198,197
70,180,70,190,80,350,DOWN,RIGHT,180,170,6,True,True,False,True,False,False,DOWN,DOWN,197,196
70,180,70,190,80,350,DOWN,RIGHT,180,170,6,True,True,False,True,False,False,DOWN,DOWN,197,196
70,190,70,200,80,350,DOWN,RIGHT,170,160,6,True,True,False,True,False,False,DOWN,DOWN,196,195
70,190,70,200,80,350,DOWN,RIGHT,170,160,6,True,True,False,True,False,False,DOWN,DOWN,196,195
70,200,70,210,80,350,DOWN,RIGHT,160,150,6,True,True,False,True,False,False,DOWN,DOWN,195,194
70,200,70,210,80,350,DOWN,RIGHT,160,150,6,True,True,False,True,False,False,DOWN,DOWN,195,194
70,210,70,220,80,350,DOWN,RIGHT,150,140,6,True,True,False,True,False,False,DOWN,DOWN,194,193
70,210,70,220,80,350,DOWN,RIGHT,150,140,6,True,True,False,True,False,False,DOWN,DOWN,194,193
70,220,70,230,80,350,DOWN,RIGHT,140,130,6,True,True,False,True,False,False,DOWN,DOWN,193,192
70,220,70,230,80,350,DOWN,RIGHT,140,130,6,True,True,False,True,False,False,DOWN,DOWN,193,192
70,230,70,240,80,350,DOWN,RIGHT,130,120,6,True,True,False,True,False,False,DOWN,DOWN,192,191
70,230,70,240,80,350,DOWN,RIGHT,130,120,6,True,True,False,True,False,False,DOWN,DOWN,192,191
70,240,80,240,80,350,DOWN,RIGHT,120,110,6,True,True,False,True,False,False,DOWN,RIGHT,191,190
70,240,80,240,80,350,DOWN,RIGHT,120,110,6,True,True,False,True,True,False,RIGHT,RIGHT,191,190
80,240,80,250,80,350,DOWN,EQUAL,110,100,6,True,False,True,True,True,False,RIGHT,DOWN,190,189
80,240,80,250,80,350,DOWN,EQUAL,110,100,6,True,False,True,True,False,False,DOWN,DOWN,190,189
80,250,80,260,80,350,DOWN,EQUAL,100,90,6,True,True,False,True,False,False,DOWN,DOWN,189,188
80,250,80,260,80,350,DOWN,EQUAL,100,90,6,True,True,False,True,False,False,DOWN,DOWN,189,188
80,260,80,270,80,350,DOWN,EQUAL,90,80,6,True,True,False,True,False,False,DOWN,DOWN,188,187
80,260,80,270,80,350,DOWN,EQUAL,90,80,6,True,True,False,True,False,False,DOWN,DOWN,188,187
80,270,80,280,80,350,DOWN,EQUAL,80,70,6,True,True,False,True,False,False,DOWN,DOWN,187,186
80,270,80,280,80,350,DOWN,EQUAL,80,70,6,True,True,False,True,False,False,DOWN,DOWN,187,186
80,280,80,290,80,350,DOWN,EQUAL,70,60,6,True,True,False,True,False,False,DOWN,DOWN,186,185
80,280,80,290,80,350,DOWN,EQUAL,70,60,6,True,True,False,True,False,False,DOWN,DOWN,186,185
80,290,80,300,80,350,DOWN,EQUAL,60,50,6,True,True,False,True,False,False,DOWN,DOWN,185,184
80,290,80,300,80,350,DOWN,EQUAL,60,50,6,True,True,False,True,False,False,DOWN,DOWN,185,184
80,300,80,310,80,350,DOWN,EQUAL,50,40,6,True,True,False,True,False,False,DOWN,DOWN,184,183
80,300,80,310,80,350,DOWN,EQUAL,50,40,6,True,True,False,True,False,False,DOWN,DOWN,184,183
80,310,80,320,80,350,DOWN,EQUAL,40,30,6,True,True,False,True,False,False,DOWN,DOWN,183,182
80,310,80,320,80,350,DOWN,EQUAL,40,30,6,True,True,False,True,False,False,DOWN,DOWN,183,182
80,320,80,330,80,350,DOWN,EQUAL,30,20,6,True,True,False,True,False,False,DOWN,DOWN,182,181
80,320,80,330,80,350,DOWN,EQUAL,30,20,6,True,True,False,True,False,False,DOWN,DOWN,182,181
80,330,80,340,80,350,DOWN,EQUAL,20,10,6,True,True,False,True,False,False,DOWN,DOWN,181,180
80,330,80,340,80,350,DOWN,EQUAL,20,10,6,True,True,False,True,False,False,DOWN,DOWN,181,180
80,340,80,350,80,350,DOWN,EQUAL,10,0,6,True,True,False,True,False,False,DOWN,DOWN,180,280
80,340,80,350,80,350,DOWN,EQUAL,10,0,6,True,True,False,True,False,False,DOWN,DOWN,180,280
80,350,80,360,400,390,EQUAL,EQUAL,360,350,7,True,True,False,True,False,False,DOWN,DOWN,280,279
80,350,80,360,400,390,EQUAL,EQUAL,360,350,7,True,True,False,True,False,False,DOWN,DOWN,280,279
80,360,80,370,400,390,DOWN,RIGHT,350,340,7,True,True,False,True,False,False,DOWN,DOWN,279,278
80,360,80,370,400,390,DOWN,RIGHT,350,340,7,True,True,False,True,False,False,DOWN,DOWN,279,278
80,370,80,380,400,390,DOWN,RIGHT,340,330,7,True,True,False,True,False,False,DOWN,DOWN,278,277
80,370,80,380,400,390,DOWN,RIGHT,340,330,7,True,True,False,True,False,False,DOWN,DOWN,278,277
80,380,80,390,400,390,DOWN,RIGHT,330,320,7,True,True,False,True,False,False,DOWN,DOWN,277,276
80,380,80,390,400,390,DOWN,RIGHT,330,320,7,True,True,False,True,False,False,DOWN,DOWN,277,276
80,390,90,390,400,390,EQUAL,RIGHT,320,310,7,True,True,False,True,False,False,DOWN,RIGHT,276,275
80,390,90,390,400,390,EQUAL,RIGHT,320,310,7,True,True,False,True,False,False,RIGHT,RIGHT,276,275
90,390,100,390,400,390,EQUAL,RIGHT,310,300,7,True,False,True,True,False,False,RIGHT,RIGHT,275,274
90,390,100,390,400,390,EQUAL,RIGHT,310,300,7,True,False,True,True,False,False,RIGHT,RIGHT,275,274
100,390,110,390,400,390,EQUAL,RIGHT,300,290,7,True,False,True,True,False,False,RIGHT,RIGHT,274,273
100,390,110,390,400,390,EQUAL,RIGHT,300,290,7,True,False,True,True,False,False,RIGHT,RIGHT,274,273
110,390,120,390,400,390,EQUAL,RIGHT,290,280,7,True,False,True,True,False,False,RIGHT,RIGHT,273,272
110,390,120,390,400,390,EQUAL,RIGHT,290,280,7,True,False,True,True,False,False,RIGHT,RIGHT,273,272
120,390,130,390,400,390,EQUAL,RIGHT,280,270,7,True,False,True,True,False,False,RIGHT,RIGHT,272,271
120,390,130,390,400,390,EQUAL,RIGHT,280,270,7,True,False,True,True,False,False,RIGHT,RIGHT,272,271
130,390,140,390,400,390,EQUAL,RIGHT,270,260,7,True,False,True,True,False,False,RIGHT,RIGHT,271,270
130,390,140,390,400,390,EQUAL,RIGHT,270,260,7,True,False,True,True,False,False,RIGHT,RIGHT,271,270
140,390,150,390,400,390,EQUAL,RIGHT,260,250,7,True,False,True,True,False,False,RIGHT,RIGHT,270,269
140,390,150,390,400,390,EQUAL,RIGHT,260,250,7,True,False,True,True,False,False,RIGHT,RIGHT,270,269
150,390,160,390,400,390,EQUAL,RIGHT,250,240,7,True,False,True,True,False,False,RIGHT,RIGHT,269,268
150,390,160,390,400,390,EQUAL,RIGHT,250,240,7,True,False,True,True,False,False,RIGHT,RIGHT,269,268
160,390,170,390,400,390,EQUAL,RIGHT,240,230,7,True,False,True,True,False,False,RIGHT,RIGHT,268,267
160,390,170,390,400,390,EQUAL,RIGHT,240,230,7,True,False,True,True,False,False,RIGHT,RIGHT,268,267
170,390,180,390,400,390,EQUAL,RIGHT,230,220,7,True,False,True,True,False,False,RIGHT,RIGHT,267,266
170,390,180,390,400,390,EQUAL,RIGHT,230,220,7,True,False,True,True,False,False,RIGHT,RIGHT,267,266
180,390,190,390,400,390,EQUAL,RIGHT,220,210,7,True,False,True,True,False,False,RIGHT,RIGHT,266,265
180,390,190,390,400,390,EQUAL,RIGHT,220,210,7,True,False,True,True,False,False,RIGHT,RIGHT,266,265
190,390,200,390,400,390,EQUAL,RIGHT,210,200,7,True,False,True,True,False,False,RIGHT,RIGHT,265,264
190,390,200,390,400,390,EQUAL,RIGHT,210,200,7,True,False,True,True,False,False,RIGHT,RIGHT,265,264
200,390,210,390,400,390,EQUAL,RIGHT,200,190,7,True,False,True,True,False,False,RIGHT,RIGHT,264,263
200,390,210,390,400,390,EQUAL,RIGHT,200,190,7,True,False,True,True,False,False,RIGHT,RIGHT,264,263
210,390,220,390,400,390,EQUAL,RIGHT,190,180,7,True,False,True,True,False,False,RIGHT,RIGHT,263,262
210,390,220,390,400,390,EQUAL,RIGHT,190,180,7,True,False,True,True,False,False,RIGHT,RIGHT,263,262
220,390,230,390,400,390,EQUAL,RIGHT,180,170,7,True,False,True,True,False,False,RIGHT,RIGHT,262,261
220,390,230,390,400,390,EQUAL,RIGHT,180,170,7,True,False,True,True,False,False,RIGHT,RIGHT,262,261
230,390,240,390,400,390,EQUAL,RIGHT,170,160,7,True,False,True,True,False,False,RIGHT,RIGHT,261,260
230,390,240,390,400,390,EQUAL,RIGHT,170,160,7,True,False,True,True,False,False,RIGHT,RIGHT,261,260
240,390,250,390,400,390,EQUAL,RIGHT,160,150,7,True,False,True,True,False,False,RIGHT,RIGHT,260,259
240,390,250,390,400,390,EQUAL,RIGHT,160,150,7,True,False,True,True,False,False,RIGHT,RIGHT,260,259
250,390,260,390,400,390,EQUAL,RIGHT,150,140,7,True,False,True,True,False,False,RIGHT,RIGHT,259,258
250,390,260,390,400,390,EQUAL,RIGHT,150,140,7,True,False,True,True,False,False,RIGHT,RIGHT,259,258
260,390,270,390,400,390,EQUAL,RIGHT,140,130,7,True,False,True,True,False,False,RIGHT,RIGHT,258,257
260,390,270,390,400,390,EQUAL,RIGHT,140,130,7,True,False,True,True,False,False,RIGHT,RIGHT,258,257
270,390,280,390,400,390,EQUAL,RIGHT,130,120,7,True,False,True,True,False,False,RIGHT,RIGHT,257,256
270,390,280,390,400,390,EQUAL,RIGHT,130,120,7,True,False,True,True,False,False,RIGHT,RIGHT,257,256
280,390,290,390,400,390,EQUAL,RIGHT,120,110,7,True,False,True,True,False,False,RIGHT,RIGHT,256,255
280,390,290,390,400,390,EQUAL,RIGHT,120,110,7,True,False,True,True,False,False,RIGHT,RIGHT,256,255
290,390,300,390,400,390,EQUAL,RIGHT,110,100,7,True,False,True,True,False,False,RIGHT,RIGHT,255,254
290,390,300,390,400,390,EQUAL,RIGHT,110,100,7,True,False,True,True,False,False,RIGHT,RIGHT,255,254
300,390,310,390,400,390,EQUAL,RIGHT,100,90,7,True,False,True,True,False,False,RIGHT,RIGHT,254,253
300,390,310,390,400,390,EQUAL,RIGHT,100,90,7,True,False,True,True,False,False,RIGHT,RIGHT,254,253
310,390,320,390,400,390,EQUAL,RIGHT,90,80,7,True,False,True,True,False,False,RIGHT,RIGHT,253,252
310,390,320,390,400,390,EQUAL,RIGHT,90,80,7,True,False,True,True,False,False,RIGHT,RIGHT,253,252
320,390,330,390,400,390,EQUAL,RIGHT,80,70,7,True,False,True,True,False,False,RIGHT,RIGHT,252,251
320,390,330,390,400,390,EQUAL,RIGHT,80,70,7,True,False,True,True,False,False,RIGHT,RIGHT,252,251
330,390,340,390,400,390,EQUAL,RIGHT,70,60,7,True,False,True,True,False,False,RIGHT,RIGHT,251,250
330,390,340,390,400,390,EQUAL,RIGHT,70,60,7,True,False,True,True,False,False,RIGHT,RIGHT,251,250
340,390,350,390,400,390,EQUAL,RIGHT,60,50,7,True,False,True,True,False,False,RIGHT,RIGHT,250,249
340,390,350,390,400,390,EQUAL,RIGHT,60,50,7,True,False,True,True,False,False,RIGHT,RIGHT,250,249
350,390,360,390,400,390,EQUAL,RIGHT,50,40,7,True,False,True,True,False,False,RIGHT,RIGHT,249,248
350,390,360,390,400,390,EQUAL,RIGHT,50,40,7,True,False,True,True,False,False,RIGHT,RIGHT,249,248
360,390,370,390,400,390,EQUAL,RIGHT,40,30,7,True,False,True,True,False,False,RIGHT,RIGHT,248,247
360,390,370,390,400,390,EQUAL,RIGHT,40,30,7,True,False,True,True,False,False,RIGHT,RIGHT,248,247
370,390,380,390,400,390,EQUAL,RIGHT,30,20,7,True,False,True,True,False,False,RIGHT,RIGHT,247,246
370,390,380,390,400,390,EQUAL,RIGHT,30,20,7,True,False,True,True,False,False,RIGHT,RIGHT,247,246
380,390,390,390,400,390,EQUAL,RIGHT,20,10,7,True,False,True,True,False,False,RIGHT,RIGHT,246,245
380,390,390,390,400,390,EQUAL,RIGHT,20,10,7,True,False,True,True,False,False,RIGHT,RIGHT,246,245
390,390,400,390,400,390,EQUAL,RIGHT,10,0,7,True,False,True,True,False,False,RIGHT,RIGHT,245,345
390,390,400,390,400,390,EQUAL,RIGHT,10,0,7,True,False,True,True,False,False,RIGHT,RIGHT,245,345
400,390,410,390,120,190,EQUAL,EQUAL,480,490,8,True,False,True,True,False,False,RIGHT,RIGHT,345,344
400,390,410,390,120,190,EQUAL,EQUAL,480,490,8,True,False,True,True,False,False,RIGHT,RIGHT,345,344
410,390,410,380,120,190,UP,LEFT,490,480,8,True,False,True,True,False,False,RIGHT,UP,344,343
410,390,410,380,120,190,UP,LEFT,490,480,8,True,False,True,True,False,False,UP,UP,344,343
410,380,410,370,120,190,UP,LEFT,480,470,8,True,True,True,False,False,False,UP,UP,343,342
410,380,410,370,120,190,UP,LEFT,480,470,8,True,True,True,False,False,False,UP,UP,343,342
410,370,410,360,120,190,UP,LEFT,470,460,8,True,True,True,False,False,False,UP,UP,342,341
410,370,410,360,120,190,UP,LEFT,470,460,8,True,True,True,False,False,False,UP,UP,342,341
410,360,410,350,120,190,UP,LEFT,460,450,8,True,True,True,False,False,False,UP,UP,341,340
410,360,410,350,120,190,UP,LEFT,460,450,8,True,True,True,False,False,False,UP,UP,341,340
410,350,410,340,120,190,UP,LEFT,450,440,8,True,True,True,False,False,False,UP,UP,340,339
410,350,410,340,120,190,UP,LEFT,450,440,8,True,True,True,False,False,False,UP,UP,340,339
410,340,410,330,120,190,UP,LEFT,440,430,8,True,True,True,False,False,False,UP,UP,339,338
410,340,410,330,120,190,UP,LEFT,440,430,8,True,True,True,False,False,False,UP,UP,339,338
410,330,410,320,120,190,UP,LEFT,430,420,8,True,True,True,False,False,False,UP,UP,338,337
410,330,410,320,120,190,UP,LEFT,430,420,8,True,True,True,False,False,False,UP,UP,338,337
410,320,410,310,120,190,UP,LEFT,420,410,8,True,True,True,False,False,False,UP,UP,337,336
410,320,410,310,120,190,UP,LEFT,420,410,8,True,True,True,False,False,False,UP,UP,337,336
410,310,410,300,120,190,UP,LEFT,410,400,8,True,True,True,False,False,False,UP,UP,336,335
410,310,410,300,120,190,UP,LEFT,410,400,8,True,True,True,False,False,False,UP,UP,336,335
410,300,410,290,120,190,UP,LEFT,400,390,8,True,True,True,False,False,False,UP,UP,335,334
410,300,410,290,120,190,UP,LEFT,400,390,8,True,True,True,False,False,False,UP,UP,335,334
410,290,410,280,120,190,UP,LEFT,390,380,8,True,True,True,False,False,False,UP,UP,334,333
410,290,410,280,120,190,UP,LEFT,390,380,8,True,True,True,False,False,False,UP,UP,334,333
410,280,410,270,120,190,UP,LEFT,380,370,8,True,True,True,False,False,False,UP,UP,333,332
410,280,410,270,120,190,UP,LEFT,380,370,8,True,True,True,False,False,False,UP,UP,333,332
410,270,410,260,120,190,UP,LEFT,370,360,8,True,True,True,False,False,False,UP,UP,332,331
410,270,410,260,120,190,UP,LEFT,370,360,8,True,True,True,False,False,False,UP,UP,332,331
410,260,410,250,120,190,UP,LEFT,360,350,8,True,True,True,False,False,False,UP,UP,331,330
410,260,410,250,120,190,UP,LEFT,360,350,8,True,True,True,False,False,False,UP,UP,331,330
410,250,410,240,120,190,UP,LEFT,350,340,8,True,True,True,False,False,False,UP,UP,330,329
410,250,410,240,120,190,UP,LEFT,350,340,8,True,True,True,False,False,False,UP,UP,330,329
410,240,410,230,120,190,UP,LEFT,340,330,8,True,True,True,False,False,False,UP,UP,329,328
410,240,410,230,120,190,UP,LEFT,340,330,8,True,True,True,False,False,False,UP,UP,329,328
410,230,410,220,120,190,UP,LEFT,330,320,8,True,True,True,False,False,False,UP,UP,328,327
410,230,410,220,120,190,UP,LEFT,330,320,8,True,True,True,False,False,False,UP,UP,328,327
410,220,410,210,120,190,UP,LEFT,320,310,8,True,True,True,False,False,False,UP,UP,327,326
410,220,410,210,120,190,UP,LEFT,320,310,8,True,True,True,False,False,False,UP,UP,327,326
410,210,400,210,120,190,UP,LEFT,310,300,8,True,True,True,False,False,False,UP,LEFT,326,325
410,210,400,210,120,190,UP,LEFT,310,300,8,True,True,True,False,True,False,LEFT,LEFT,326,325
400,210,390,210,120,190,UP,LEFT,300,290,8,False,True,True,True,True,False,LEFT,LEFT,325,324
400,210,390,210,120,190,UP,LEFT,300,290,8,False,True,True,True,True,False,LEFT,LEFT,325,324
390,210,380,210,120,190,UP,LEFT,290,280,8,False,True,True,True,True,False,LEFT,LEFT,324,323
390,210,380,210,120,190,UP,LEFT,290,280,8,False,True,True,True,True,False,LEFT,LEFT,324,323
380,210,370,210,120,190,UP,LEFT,280,270,8,False,True,True,True,True,False,LEFT,LEFT,323,322
380,210,370,210,120,190,UP,LEFT,280,270,8,False,True,True,True,True,False,LEFT,LEFT,323,322
370,210,360,210,120,190,UP,LEFT,270,260,8,False,True,True,True,True,False,LEFT,LEFT,322,321
370,210,360,210,120,190,UP,LEFT,270,260,8,False,True,True,True,True,False,LEFT,LEFT,322,321
360,210,350,210,120,190,UP,LEFT,260,250,8,False,True,True,True,True,False,LEFT,LEFT,321,320
360,210,350,210,120,190,UP,LEFT,260,250,8,False,True,True,True,True,False,LEFT,LEFT,321,320
350,210,350,200,120,190,UP,LEFT,250,240,8,False,True,True,True,True,False,LEFT,UP,320,319
350,210,350,200,120,190,UP,LEFT,250,240,8,False,True,True,True,False,False,UP,UP,320,319
350,200,340,200,120,190,UP,LEFT,240,230,8,True,True,True,False,False,False,UP,LEFT,319,318
350,200,340,200,120,190,UP,LEFT,240,230,8,True,True,True,False,False,False,LEFT,LEFT,319,318
340,200,330,200,120,190,UP,LEFT,230,220,8,False,True,True,True,False,False,LEFT,LEFT,318,317
340,200,330,200,120,190,UP,LEFT,230,220,8,False,True,True,True,False,False,LEFT,LEFT,318,317
330,200,320,200,120,190,UP,LEFT,220,210,8,False,True,True,True,False,False,LEFT,LEFT,317,316
330,200,320,200,120,190,UP,LEFT,220,210,8,False,True,True,True,False,False,LEFT,LEFT,317,316
320,200,310,200,120,190,UP,LEFT,210,200,8,False,True,True,True,False,False,LEFT,LEFT,316,315
320,200,310,200,120,190,UP,LEFT,210,200,8,False,True,True,True,False,False,LEFT,LEFT,316,315
310,200,300,200,120,190,UP,LEFT,200,190,8,False,True,True,True,False,False,LEFT,LEFT,315,314
310,200,300,200,120,190,UP,LEFT,200,190,8,False,True,True,True,False,False,LEFT,LEFT,315,314
300,200,290,200,120,190,UP,LEFT,190,180,8,False,True,True,True,False,False,LEFT,LEFT,314,313
300,200,290,200,120,190,UP,LEFT,190,180,8,False,True,True,True,False,False,LEFT,LEFT,314,313
290,200,280,200,120,190,UP,LEFT,180,170,8,False,True,True,True,False,False,LEFT,LEFT,313,312
290,200,280,200,120,190,UP,LEFT,180,170,8,False,True,True,True,False,False,LEFT,LEFT,313,312
280,200,270,200,120,190,UP,LEFT,170,160,8,False,True,True,True,False,False,LEFT,LEFT,312,311
280,200,270,200,120,190,UP,LEFT,170,160,8,False,True,True,True,False,False,LEFT,LEFT,312,311
270,200,260,200,120,190,UP,LEFT,160,150,8,False,True,True,True,False,False,LEFT,LEFT,311,310
270,200,260,200,120,190,UP,LEFT,160,150,8,False,True,True,True,False,False,LEFT,LEFT,311,310
260,200,250,200,120,190,UP,LEFT,150,140,8,False,True,True,True,False,False,LEFT,LEFT,310,309
260,200,250,200,120,190,UP,LEFT,150,140,8,False,True,True,True,False,False,LEFT,LEFT,310,309
250,200,240,200,120,190,UP,LEFT,140,130,8,False,True,True,True,False,False,LEFT,LEFT,309,308
250,200,240,200,120,190,UP,LEFT,140,130,8,False,True,True,True,False,False,LEFT,LEFT,309,308
240,200,230,200,120,190,UP,LEFT,130,120,8,False,True,True,True,False,False,LEFT,LEFT,308,307
240,200,230,200,120,190,UP,LEFT,130,120,8,False,True,True,True,False,False,LEFT,LEFT,308,307
230,200,220,200,120,190,UP,LEFT,120,110,8,False,True,True,True,False,False,LEFT,LEFT,307,306
230,200,220,200,120,190,UP,LEFT,120,110,8,False,True,True,True,False,False,LEFT,LEFT,307,306
220,200,210,200,120,190,UP,LEFT,110,100,8,False,True,True,True,False,False,LEFT,LEFT,306,305
220,200,210,200,120,190,UP,LEFT,110,100,8,False,True,True,True,False,False,LEFT,LEFT,306,305
210,200,200,200,120,190,UP,LEFT,100,90,8,False,True,True,True,False,False,LEFT,LEFT,305,304
210,200,200,200,120,190,UP,LEFT,100,90,8,False,True,True,True,False,False,LEFT,LEFT,305,304
200,200,190,200,120,190,UP,LEFT,90,80,8,False,True,True,True,False,False,LEFT,LEFT,304,303
200,200,190,200,120,190,UP,LEFT,90,80,8,False,True,True,True,False,False,LEFT,LEFT,304,303
190,200,180,200,120,190,UP,LEFT,80,70,8,False,True,True,True,False,False,LEFT,LEFT,303,302
190,200,180,200,120,190,UP,LEFT,80,70,8,False,True,True,True,False,False,LEFT,LEFT,303,302
180,200,180,190,120,190,UP,LEFT,70,60,8,False,True,True,True,False,False,LEFT,UP,302,301
180,200,180,190,120,190,UP,LEFT,70,60,8,False,True,True,True,False,False,UP,UP,302,301
180,190,170,190,120,190,EQUAL,LEFT,60,50,8,True,True,True,False,False,False,UP,LEFT,301,300
180,190,170,190,120,190,EQUAL,LEFT,60,50,8,True,True,True,False,False,False,LEFT,LEFT,301,300
170,190,160,190,120,190,EQUAL,LEFT,50,40,8,False,True,True,True,False,False,LEFT,LEFT,300,299
170,190,160,190,120,190,EQUAL,LEFT,50,40,8,False,True,True,True,False,False,LEFT,LEFT,300,299
160,190,150,190,120,190,EQUAL,LEFT,40,30,8,False,True,True,True,False,False,LEFT,LEFT,299,298
160,190,150,190,120,190,EQUAL,LEFT,40,30,8,False,True,True,True,False,False,LEFT,LEFT,299,298
150,190,140,190,120,190,EQUAL,LEFT,30,20,8,False,True,True,True,False,False,LEFT,LEFT,298,297
150,190,140,190,120,190,EQUAL,LEFT,30,20,8,False,True,True,True,False,False,LEFT,LEFT,298,297
140,190,130,190,120,190,EQUAL,LEFT,20,10,8,False,True,True,True,False,False,LEFT,LEFT,297,296
140,190,130,190,120,190,EQUAL,LEFT,20,10,8,False,True,True,True,False,False,LEFT,LEFT,297,296
130,190,120,190,120,190,EQUAL,LEFT,10,0,8,False,True,True,True,False,False,LEFT,LEFT,296,396
130,190,120,190,120,190,EQUAL,LEFT,10,0,8,False,True,True,True,False,False,LEFT,LEFT,296,396
120,190,110,190,120,20,EQUAL,EQUAL,170,180,9,False,True,True,True,False,False,LEFT,LEFT,396,395
120,190,110,190,120,20,EQUAL,EQUAL,170,180,9,False,True,True,True,False,False,LEFT,LEFT,396,395
110,190,100,190,120,20,UP,RIGHT,180,190,9,False,True,True,True,False,False,LEFT,LEFT,395,394
110,190,100,190,120,20,UP,RIGHT,180,190,9,False,True,True,True,False,False,LEFT,LEFT,395,394
100,190,90,190,120,20,UP,RIGHT,190,200,9,False,True,True,True,False,False,LEFT,LEFT,394,393
100,190,90,190,120,20,UP,RIGHT,190,200,9,False,True,True,True,False,False,LEFT,LEFT,394,393
90,190,80,190,120,20,UP,RIGHT,200,210,9,False,True,True,True,False,False,LEFT,LEFT,393,392
90,190,80,190,120,20,UP,RIGHT,200,210,9,False,True,True,True,False,False,LEFT,LEFT,393,392
80,190,70,190,120,20,UP,RIGHT,210,220,9,False,True,True,True,False,False,LEFT,LEFT,392,391
80,190,70,190,120,20,UP,RIGHT,210,220,9,False,True,True,True,False,False,LEFT,LEFT,392,391
70,190,70,180,120,20,UP,RIGHT,220,210,9,False,True,True,True,False,False,LEFT,UP,391,390
70,190,70,180,120,20,UP,RIGHT,220,210,9,False,True,True,True,False,False,UP,UP,391,390
70,180,70,170,120,20,UP,RIGHT,210,200,9,True,True,True,False,False,False,UP,UP,390,389
70,180,70,170,120,20,UP,RIGHT,210,200,9,True,True,True,False,False,False,UP,UP,390,389
70,170,70,160,120,20,UP,RIGHT,200,190,9,True,True,True,False,False,False,UP,UP,389,388
70,170,70,160,120,20,UP,RIGHT,200,190,9,True,True,True,False,False,False,UP,UP,389,388
70,160,70,150,120,20,UP,RIGHT,190,180,9,True,True,True,False,False,False,UP,UP,388,387
70,160,70,150,120,20,UP,RIGHT,190,180,9,True,True,True,False,False,False,UP,UP,388,387
70,150,70,140,120,20,UP,RIGHT,180,170,9,True,True,True,False,False,False,UP,UP,387,386
70,150,70,140,120,20,UP,RIGHT,180,170,9,True,True,True,False,False,False,UP,UP,387,386
70,140,70,130,120,20,UP,RIGHT,170,160,9,True,True,True,False,False,False,UP,UP,386,385
70,140,70,130,120,20,UP,RIGHT,170,160,9,True,True,True,False,False,False,UP,UP,386,385
70,130,70,120,120,20,UP,RIGHT,160,150,9,True,True,True,False,False,False,UP,UP,385,384
70,130,70,120,120,20,UP,RIGHT,160,150,9,True,True,True,False,False,False,UP,UP,385,384
70,120,70,110,120,20,UP,RIGHT,150,140,9,True,True,True,False,False,False,UP,UP,384,383
70,120,70,110,120,20,UP,RIGHT,150,140,9,True,True,True,False,False,False,UP,UP,384,383
70,110,70,100,120,20,UP,RIGHT,140,130,9,True,True,True,False,False,False,UP,UP,383,382
70,110,70,100,120,20,UP,RIGHT,140,130,9,True,True,True,False,False,False,UP,UP,383,382
70,100,70,90,120,20,UP,RIGHT,130,120,9,True,True,True,False,False,False,UP,UP,382,381
70,100,70,90,120,20,UP,RIGHT,130,120,9,True,True,True,False,False,False,UP,UP,382,381
70,90,70,80,120,20,UP,RIGHT,120,110,9,True,True,True,False,False,False,UP,UP,381,380
70,90,70,80,120,20,UP,RIGHT,120,110,9,True,True,True,False,False,False,UP,UP,381,380
70,80,70,70,120,20,UP,RIGHT,110,100,9,True,True,True,False,False,False,UP,UP,380,379
70,80,70,70,120,20,UP,RIGHT,110,100,9,True,True,True,False,False,False,UP,UP,380,379
70,70,70,60,120,20,UP,RIGHT,100,90,9,True,True,True,False,False,False,UP,UP,379,378
70,70,70,60,120,20,UP,RIGHT,100,90,9,True,True,True,False,False,False,UP,UP,379,378
70,60,70,50,120,20,UP,RIGHT,90,80,9,True,True,True,False,False,False,UP,UP,378,377
70,60,70,50,120,20,UP,RIGHT,90,80,9,True,True,True,False,False,False,UP,UP,378,377
70,50,70,40,120,20,UP,RIGHT,80,70,9,True,True,True,False,False,False,UP,UP,377,376
70,50,70,40,120,20,UP,RIGHT,80,70,9,True,True,True,False,False,False,UP,UP,377,376
70,40,70,30,120,20,UP,RIGHT,70,60,9,True,True,True,False,False,False,UP,UP,376,375
70,40,70,30,120,20,UP,RIGHT,70,60,9,True,True,True,False,False,False,UP,UP,376,375
70,30,70,20,120,20,UP,RIGHT,60,50,9,True,True,True,False,False,False,UP,UP,375,374
70,30,70,20,120,20,UP,RIGHT,60,50,9,True,True,True,False,False,False,UP,UP,375,374
70,20,80,20,120,20,EQUAL,RIGHT,50,40,9,True,True,True,False,False,False,UP,RIGHT,374,373
70,20,80,20,120,20,EQUAL,RIGHT,50,40,9,True,True,True,False,False,False,RIGHT,RIGHT,374,373
80,20,90,20,120,20,EQUAL,RIGHT,40,30,9,True,False,True,True,False,False,RIGHT,RIGHT,373,372
80,20,90,20,120,20,EQUAL,RIGHT,40,30,9,True,False,True,True,False,False,RIGHT,RIGHT,373,372
90,20,100,20,120,20,EQUAL,RIGHT,30,20,9,True,False,True,True,False,False,RIGHT,RIGHT,372,371
90,20,100,20,120,20,EQUAL,RIGHT,30,20,9,True,False,True,True,False,False,RIGHT,RIGHT,372,371
100,20,110,20,120,20,EQUAL,RIGHT,20,10,9,True,False,True,True,False,False,RIGHT,RIGHT,371,370
100,20,110,20,120,20,EQUAL,RIGHT,20,10,9,True,False,True,True,False,False,RIGHT,RIGHT,371,370
110,20,120,20,120,20,EQUAL,RIGHT,10,0,9,True,False,True,True,False,False,RIGHT,RIGHT,370,470
110,20,120,20,120,20,EQUAL,RIGHT,10,0,9,True,False,True,True,False,False,RIGHT,RIGHT,370,470
120,20,130,20,180,360,EQUAL,EQUAL,400,390,10,True,False,True,True,False,False,RIGHT,RIGHT,470,469
120,20,130,20,180,360,EQUAL,EQUAL,400,390,10,True,False,True,True,False,False,RIGHT,RIGHT,470,469
130,20,140,20,180,360,DOWN,RIGHT,390,380,10,True,False,True,True,False,False,RIGHT,RIGHT,469,468
130,20,140,20,180,360,DOWN,RIGHT,390,380,10,True,False,True,True,False,False,RIGHT,RIGHT,469,468
140,20,150,20,180,360,DOWN,RIGHT,380,370,10,True,False,True,True,False,False,RIGHT,RIGHT,468,467
140,20,150,20,180,360,DOWN,RIGHT,380,370,10,True,False,True,True,False,False,RIGHT,RIGHT,468,467
150,20,160,20,180,360,DOWN,RIGHT,370,360,10,True,False,True,True,False,False,RIGHT,RIGHT,467,466
150,20,160,20,180,360,DOWN,RIGHT,370,360,10,True,False,True,True,False,False,RIGHT,RIGHT,467,466
160,20,160,30,180,360,DOWN,RIGHT,360,350,10,True,False,True,True,False,False,RIGHT,DOWN,466,465
160,20,160,30,180,360,DOWN,RIGHT,360,350,10,True,False,True,True,True,False,DOWN,DOWN,466,465
160,30,160,40,180,360,DOWN,RIGHT,350,340,10,True,True,False,True,True,False,DOWN,DOWN,465,464
160,30,160,40,180,360,DOWN,RIGHT,350,340,10,True,True,False,True,True,False,DOWN,DOWN,465,464
160,40,160,50,180,360,DOWN,RIGHT,340,330,10,True,True,False,True,True,False,DOWN,DOWN,464,463
160,40,160,50,180,360,DOWN,RIGHT,340,330,10,True,True,False,True,True,False,DOWN,DOWN,464,463
160,50,160,60,180,360,DOWN,RIGHT,330,320,10,True,True,False,True,True,False,DOWN,DOWN,463,462
160,50,160,60,180,360,DOWN,RIGHT,330,320,10,True,True,False,True,True,False,DOWN,DOWN,463,462
160,60,160,70,180,360,DOWN,RIGHT,320,310,10,True,True,False,True,True,False,DOWN,DOWN,462,461
160,60,160,70,180,360,DOWN,RIGHT,320,310,10,True,True,False,True,True,False,DOWN,DOWN,462,461
160,70,160,80,180,360,DOWN,RIGHT,310,300,10,True,True,False,True,True,False,DOWN,DOWN,461,460
160,70,160,80,180,360,DOWN,RIGHT,310,300,10,True,True,False,True,True,False,DOWN,DOWN,461,460
160,80,160,90,180,360,DOWN,RIGHT,300,290,10,True,True,False,True,True,False,DOWN,DOWN,460,459
160,80,160,90,180,360,DOWN,RIGHT,300,290,10,True,True,False,True,True,False,DOWN,DOWN,460,459
160,90,160,100,180,360,DOWN,RIGHT,290,280,10,True,True,False,True,True,False,DOWN,DOWN,459,458
160,90,160,100,180,360,DOWN,RIGHT,290,280,10,True,True,False,True,True,False,DOWN,DOWN,459,458
160,100,160,110,180,360,DOWN,RIGHT,280,270,10,True,True,False,True,True,False,DOWN,DOWN,458,457
160,100,160,110,180,360,DOWN,RIGHT,280,270,10,True,True,False,True,True,False,DOWN,DOWN,458,457
160,110,160,120,180,360,DOWN,RIGHT,270,260,10,True,True,False,True,True,False,DOWN,DOWN,457,456
160,110,160,120,180,360,DOWN,RIGHT,270,260,10,True,True,False,True,True,False,DOWN,DOWN,457,456
160,120,160,130,180,360,DOWN,RIGHT,260,250,10,True,True,False,True,True,False,DOWN,DOWN,456,455
160,120,160,130,180,360,DOWN,RIGHT,260,250,10,True,True,False,True,True,False,DOWN,DOWN,456,455
160,130,170,130,180,360,DOWN,RIGHT,250,240,10,True,True,False,True,True,False,DOWN,RIGHT,455,454
160,130,170,130,180,360,DOWN,RIGHT,250,240,10,True,True,False,True,False,False,RIGHT,RIGHT,455,454
170,130,170,140,180,360,DOWN,RIGHT,240,230,10,True,False,True,True,False,False,RIGHT,DOWN,454,453
170,130,170,140,180,360,DOWN,RIGHT,240,230,10,True,False,True,True,False,False,DOWN,DOWN,454,453
170,140,170,150,180,360,DOWN,RIGHT,230,220,10,True,True,False,True,False,False,DOWN,DOWN,453,452
170,140,170,150,180,360,DOWN,RIGHT,230,220,10,True,True,False,True,False,False,DOWN,DOWN,453,452
170,150,170,160,180,360,DOWN,RIGHT,220,210,10,True,True,False,True,False,False,DOWN,DOWN,452,451
170,150,170,160,180,360,DOWN,RIGHT,220,210,10,True,True,False,True,False,False,DOWN,DOWN,452,451
170,160,170,170,180,360,DOWN,RIGHT,210,200,10,True,True,False,True,False,False,DOWN,DOWN,451,450
170,160,170,170,180,360,DOWN,RIGHT,210,200,10,True,True,False,True,False,False,DOWN,DOWN,451,450
170,170,170,180,180,360,DOWN,RIGHT,200,190,10,True,True,False,True,False,False,DOWN,DOWN,450,449
170,170,170,180,180,360,DOWN,RIGHT,200,190,10,True,True,False,True,False,False,DOWN,DOWN,450,449
170,180,170,190,180,360,DOWN,RIGHT,190,180,10,True,True,False,True,False,False,DOWN,DOWN,449,448
170,180,170,190,180,360,DOWN,RIGHT,190,180,10,True,True,False,True,False,False,DOWN,DOWN,449,448
170,190,170,200,180,360,DOWN,RIGHT,180,170,10,True,True,False,True,False,False,DOWN,DOWN,448,447
170,190,170,200,180,360,DOWN,RIGHT,180,170,10,True,True,False,True,False,False,DOWN,DOWN,448,447
170,200,170,210,180,360,DOWN,RIGHT,170,160,10,True,True,False,True,False,False,DOWN,DOWN,447,446
170,200,170,210,180,360,DOWN,RIGHT,170,160,10,True,True,False,True,False,False,DOWN,DOWN,447,446
170,210,170,220,180,360,DOWN,RIGHT,160,150,10,True,True,False,True,False,False,DOWN,DOWN,446,445
170,210,170,220,180,360,DOWN,RIGHT,160,150,10,True,True,False,True,False,False,DOWN,DOWN,446,445
170,220,170,230,180,360,DOWN,RIGHT,150,140,10,True,True,False,True,False,False,DOWN,DOWN,445,444
170,220,170,230,180,360,DOWN,RIGHT,150,140,10,True,True,False,True,False,False,DOWN,DOWN,445,444
170,230,170,240,180,360,DOWN,RIGHT,140,130,10,True,True,False,True,False,False,DOWN,DOWN,444,443
170,230,170,240,180,360,DOWN,RIGHT,140,130,10,True,True,False,True,False,False,DOWN,DOWN,444,443
170,240,170,250,180,360,DOWN,RIGHT,130,120,10,True,True,False,True,False,False,DOWN,DOWN,443,442
170,240,170,250,180,360,DOWN,RIGHT,130,120,10,True,True,False,True,False,False,DOWN,DOWN,443,442
170,250,180,250,180,360,DOWN,RIGHT,120,110,10,True,True,False,True,False,False,DOWN,RIGHT,442,441
170,250,180,250,180,360,DOWN,RIGHT,120,110,10,True,True,False,True,False,False,RIGHT,RIGHT,442,441
180,250,180,260,180,360,DOWN,EQUAL,110,100,10,True,False,True,True,False,False,RIGHT,DOWN,441,440
180,250,180,260,180,360,DOWN,EQUAL,110,100,10,True,False,True,True,False,False,DOWN,DOWN,441,440
180,260,180,270,180,360,DOWN,EQUAL,100,90,10,True,True,False,True,False,False,DOWN,DOWN,440,439
180,260,180,270,180,360,DOWN,EQUAL,100,90,10,True,True,False,True,False,False,DOWN,DOWN,440,439
180,270,180,280,180,360,DOWN,EQUAL,90,80,10,True,True,False,True,False,False,DOWN,DOWN,439,438
180,270,180,280,180,360,DOWN,EQUAL,90,80,10,True,True,False,True,False,False,DOWN,DOWN,439,438
180,280,180,290,180,360,DOWN,EQUAL,80,70,10,True,True,False,True,False,False,DOWN,DOWN,438,437
180,280,180,290,180,360,DOWN,EQUAL,80,70,10,True,True,False,True,False,False,DOWN,DOWN,438,437
180,290,180,300,180,360,DOWN,EQUAL,70,60,10,True,True,False,True,False,False,DOWN,DOWN,437,436
180,290,180,300,180,360,DOWN,EQUAL,70,60,10,True,True,False,True,False,False,DOWN,DOWN,437,436
180,300,180,310,180,360,DOWN,EQUAL,60,50,10,True,True,False,True,False,False,DOWN,DOWN,436,435
180,300,180,310,180,360,DOWN,EQUAL,60,50,10,True,True,False,True,False,False,DOWN,DOWN,436,435
180,310,180,320,180,360,DOWN,EQUAL,50,40,10,True,True,False,True,False,False,DOWN,DOWN,435,434
180,310,180,320,180,360,DOWN,EQUAL,50,40,10,True,True,False,True,False,False,DOWN,DOWN,435,434
180,320,180,330,180,360,DOWN,EQUAL,40,30,10,True,True,False,True,False,False,DOWN,DOWN,434,433
180,320,180,330,180,360,DOWN,EQUAL,40,30,10,True,True,False,True,False,False,DOWN,DOWN,434,433
180,330,180,340,180,360,DOWN,EQUAL,30,20,10,True,True,False,True,False,False,DOWN,DOWN,433,432
180,330,180,340,180,360,DOWN,EQUAL,30,20,10,True,True,False,True,False,False,DOWN,DOWN,433,432
180,340,180,350,180,360,DOWN,EQUAL,20,10,10,True,True,False,True,False,False,DOWN,DOWN,432,431
180,340,180,350,180,360,DOWN,EQUAL,20,10,10,True,True,False,True,False,False,DOWN,DOWN,432,431
180,350,180,360,180,360,DOWN,EQUAL,10,0,10,True,True,False,True,False,False,DOWN,DOWN,431,531
180,350,180,360,180,360,DOWN,EQUAL,10,0,10,True,True,False,True,False,False,DOWN,DOWN,431,531
180,360,180,370,160,380,EQUAL,EQUAL,40,30,11,True,True,False,True,False,False,DOWN,DOWN,531,530
180,360,180,370,160,380,EQUAL,EQUAL,40,30,11,True,True,False,True,False,False,DOWN,DOWN,531,530
180,370,180,380,160,380,DOWN,LEFT,30,20,11,True,True,False,True,False,False,DOWN,DOWN,530,529
180,370,180,380,160,380,DOWN,LEFT,30,20,11,True,True,False,True,False,False,DOWN,DOWN,530,529
180,380,180,390,160,380,EQUAL,LEFT,20,30,11,True,True,False,True,False,False,DOWN,DOWN,529,528
180,380,180,390,160,380,EQUAL,LEFT,20,30,11,True,True,False,True,False,False,DOWN,DOWN,529,528
180,390,180,400,160,380,UP,LEFT,30,40,11,True,True,False,True,False,False,DOWN,DOWN,528,527
180,390,180,400,160,380,UP,LEFT,30,40,11,True,True,False,True,False,False,DOWN,DOWN,528,527
180,400,170,400,160,380,UP,LEFT,40,30,11,True,True,False,True,False,False,DOWN,LEFT,527,526
180,400,170,400,160,380,UP,LEFT,40,30,11,True,True,False,True,False,False,LEFT,LEFT,527,526
170,400,160,400,160,380,UP,LEFT,30,20,11,False,True,True,True,False,False,LEFT,LEFT,526,525
170,400,160,400,160,380,UP,LEFT,30,20,11,False,True,True,True,False,False,LEFT,LEFT,526,525
160,400,150,400,160,380,UP,EQUAL,20,30,11,False,True,True,True,False,False,LEFT,LEFT,525,524
160,400,150,400,160,380,UP,EQUAL,20,30,11,False,True,True,True,False,False,LEFT,LEFT,525,524
150,400,140,400,160,380,UP,RIGHT,30,40,11,False,True,True,True,False,False,LEFT,LEFT,524,523
150,400,140,400,160,380,UP,RIGHT,30,40,11,False,True,True,True,False,False,LEFT,LEFT,524,523
140,400,140,390,160,380,UP,RIGHT,40,30,11,False,True,True,True,False,False,LEFT,UP,523,522
140,400,140,390,160,380,UP,RIGHT,40,30,11,False,True,True,True,True,False,UP,UP,523,522
140,390,140,380,160,380,UP,RIGHT,30,20,11,True,True,True,False,True,False,UP,UP,522,521
140,390,140,380,160,380,UP,RIGHT,30,20,11,True,True,True,False,True,False,UP,UP,522,521
140,380,140,370,160,380,EQUAL,RIGHT,20,30,11,True,True,True,False,True,False,UP,UP,521,520
140,380,140,370,160,380,EQUAL,RIGHT,20,30,11,True,True,True,False,True,False,UP,UP,521,520
140,370,140,360,160,380,DOWN,RIGHT,30,40,11,True,True,True,False,True,False,UP,UP,520,519
140,370,140,360,160,380,DOWN,RIGHT,30,40,11,True,True,True,False,True,False,UP,UP,520,519
140,360,140,350,160,380,DOWN,RIGHT,40,50,11,True,True,True,False,True,False,UP,UP,519,518
140,360,140,350,160,380,DOWN,RIGHT,40,50,11,True,True,True,False,True,False,UP,UP,519,518
140,350,140,340,160,380,DOWN,RIGHT,50,60,11,True,True,True,False,True,False,UP,UP,518,517
140,350,140,340,160,380,DOWN,RIGHT,50,60,11,True,True,True,False,True,False,UP,UP,518,517
140,340,140,330,160,380,DOWN,RIGHT,60,70,11,True,True,True,False,True,False,UP,UP,517,516
140,340,140,330,160,380,DOWN,RIGHT,60,70,11,True,True,True,False,True,False,UP,UP,517,516
140,330,140,320,160,380,DOWN,RIGHT,70,80,11,True,True,True,False,True,False,UP,UP,516,515
140,330,140,320,160,380,DOWN,RIGHT,70,80,11,True,True,True,False,True,False,UP,UP,516,515
140,320,140,310,160,380,DOWN,RIGHT,80,90,11,True,True,True,False,True,False,UP,UP,515,514
140,320,140,310,160,380,DOWN,RIGHT,80,90,11,True,True,True,False,True,False,UP,UP,515,514
140,310,150,310,160,380,DOWN,RIGHT,90,80,11,True,True,True,False,True,False,UP,RIGHT,514,513
140,310,150,310,160,380,DOWN,RIGHT,90,80,11,True,True,True,False,True,False,RIGHT,RIGHT,514,513
150,310,150,320,160,380,DOWN,RIGHT,80,70,11,True,False,True,True,True,False,RIGHT,DOWN,513,512
150,310,150,320,160,380,DOWN,RIGHT,80,70,11,True,False,True,True,True,False,DOWN,DOWN,513,512
150,320,150,330,160,380,DOWN,RIGHT,70,60,11,True,False,False,True,True,False,DOWN,DOWN,512,511
150,320,150,330,160,380,DOWN,RIGHT,70,60,11,True,False,False,True,True,False,DOWN,DOWN,512,511
150,330,150,340,160,380,DOWN,RIGHT,60,50,11,True,False,False,True,True,False,DOWN,DOWN,511,510
150,330,150,340,160,380,DOWN,RIGHT,60,50,11,True,False,False,True,True,False,DOWN,DOWN,511,510
150,340,150,350,160,380,DOWN,RIGHT,50,40,11,True,False,False,True,True,False,DOWN,DOWN,510,509
150,340,150,350,160,380,DOWN,RIGHT,50,40,11,True,False,False,True,True,False,DOWN,DOWN,510,509
150,350,150,360,160,380,DOWN,RIGHT,40,30,11,True,False,False,True,True,False,DOWN,DOWN,509,508
150,350,150,360,160,380,DOWN,RIGHT,40,30,11,True,False,False,True,True,False,DOWN,DOWN,509,508
150,360,150,370,160,380,DOWN,RIGHT,30,20,11,True,False,False,True,True,False,DOWN,DOWN,508,507
150,360,150,370,160,380,DOWN,RIGHT,30,20,11,True,False,False,True,True,False,DOWN,DOWN,508,507
150,370,160,370,160,380,DOWN,RIGHT,20,10,11,True,True,False,True,True,False,DOWN,RIGHT,507,506
150,370,160,370,160,380,DOWN,RIGHT,20,10,11,True,True,False,True,False,False,RIGHT,RIGHT,507,506
160,370,160,380,160,380,DOWN,EQUAL,10,0,11,True,False,True,True,False,False,RIGHT,DOWN,506,606
160,370,160,380,160,380,DOWN,EQUAL,10,0,11,True,False,True,True,False,False,DOWN,DOWN,506,606
160,380,160,390,180,390,EQUAL,EQUAL,30,20,12,True,True,False,True,False,False,DOWN,DOWN,606,605
160,380,160,390,180,390,EQUAL,EQUAL,30,20,12,True,True,False,True,False,False,DOWN,DOWN,606,605
160,390,160,400,180,390,EQUAL,RIGHT,20,30,12,True,True,False,True,False,False,DOWN,DOWN,605,604
160,390,160,400,180,390,EQUAL,RIGHT,20,30,12,True,True,False,True,False,False,DOWN,DOWN,605,604
160,400,160,410,180,390,UP,RIGHT,30,40,12,True,True,False,True,False,False,DOWN,DOWN,604,603
160,400,160,410,180,390,UP,RIGHT,30,40,12,True,True,False,True,False,False,DOWN,DOWN,604,603
160,410,160,420,180,390,UP,RIGHT,40,50,12,True,True,False,True,False,False,DOWN,DOWN,603,602
160,410,160,420,180,390,UP,RIGHT,40,50,12,True,True,False,True,False,False,DOWN,DOWN,603,602
160,420,160,430,180,390,UP,RIGHT,50,60,12,True,True,False,True,False,False,DOWN,DOWN,602,601
160,420,160,430,180,390,UP,RIGHT,50,60,12,True,True,False,True,False,False,DOWN,DOWN,602,601
160,430,170,430,180,390,UP,RIGHT,60,50,12,True,True,False,True,False,False,DOWN,RIGHT,601,600
160,430,170,430,180,390,UP,RIGHT,60,50,12,True,True,False,True,False,False,RIGHT,RIGHT,601,600
170,430,180,430,180,390,UP,RIGHT,50,40,12,True,False,True,True,False,False,RIGHT,RIGHT,600,599
170,430,180,430,180,390,UP,RIGHT,50,40,12,True,False,True,True,False,False,RIGHT,RIGHT,600,599
180,430,190,430,180,390,UP,EQUAL,40,50,12,True,False,True,True,False,False,RIGHT,RIGHT,599,598
180,430,190,430,180,390,UP,EQUAL,40,50,12,True,False,True,True,False,False,RIGHT,RIGHT,599,598
190,430,190,420,180,390,UP,LEFT,50,40,12,True,False,True,True,False,False,RIGHT,UP,598,597
190,430,190,420,180,390,UP,LEFT,50,40,12,True,False,True,True,False,False,UP,UP,598,597
190,420,190,410,180,390,UP,LEFT,40,30,12,True,True,True,False,False,False,UP,UP,597,596
190,420,190,410,180,390,UP,LEFT,40,30,12,True,True,True,False,False,False,UP,UP,597,596
190,410,190,400,180,390,UP,LEFT,30,20,12,True,True,True,False,False,False,UP,UP,596,595
190,410,190,400,180,390,UP,LEFT,30,20,12,True,True,True,False,False,False,UP,UP,596,595
190,400,190,390,180,390,UP,LEFT,20,10,12,True,True,True,False,False,False,UP,UP,595,594
190,400,190,390,180,390,UP,LEFT,20,10,12,True,True,True,False,False,False,UP,UP,595,594
190,390,190,380,180,390,EQUAL,LEFT,10,20,12,True,True,True,False,False,False,UP,UP,594,593
190,390,190,380,180,390,EQUAL,LEFT,10,20,12,True,True,True,False,False,False,UP,UP,594,593
190,380,190,370,180,390,DOWN,LEFT,20,30,12,True,True,True,False,False,False,UP,UP,593,592
190,380,190,370,180,390,DOWN,LEFT,20,30,12,True,True,True,False,False,False,UP,UP,593,592
190,370,190,360,180,390,DOWN,LEFT,30,40,12,True,True,True,False,False,False,UP,UP,592,591
190,370,190,360,180,390,DOWN,LEFT,30,40,12,True,True,True,False,False,False,UP,UP,592,591
190,360,190,350,180,390,DOWN,LEFT,40,50,12,True,True,True,False,False,False,UP,UP,591,590
190,360,190,350,180,390,DOWN,LEFT,40,50,12,True,True,True,False,False,False,UP,UP,591,590
190,350,190,340,180,390,DOWN,LEFT,50,60,12,True,True,True,False,False,False,UP,UP,590,589
190,350,190,340,180,390,DOWN,LEFT,50,60,12,True,True,True,False,False,False,UP,UP,590,589
190,340,180,340,180,390,DOWN,LEFT,60,50,12,True,True,True,False,False,False,UP,LEFT,589,588
190,340,180,340,180,390,DOWN,LEFT,60,50,12,True,True,True,False,True,False,LEFT,LEFT,589,588
180,340,180,350,180,390,DOWN,EQUAL,50,40,12,False,True,True,True,True,True,LEFT,DOWN,588,587
180,340,180,350,180,390,DOWN,EQUAL,50,40,12,False,True,True,True,True,True,DOWN,DOWN,588,587
180,350,180,360,180,390,DOWN,EQUAL,40,30,12,False,True,False,True,True,False,DOWN,DOWN,587,586
180,350,180,360,180,390,DOWN,EQUAL,40,30,12,False,True,False,True,True,False,DOWN,DOWN,587,586
180,360,180,370,180,390,DOWN,EQUAL,30,20,12,False,True,False,True,True,False,DOWN,DOWN,586,585
180,360,180,370,180,390,DOWN,EQUAL,30,20,12,False,True,False,True,True,False,DOWN,DOWN,586,585
180,370,180,380,180,390,DOWN,EQUAL,20,10,12,False,True,False,True,True,False,DOWN,DOWN,585,584
180,370,180,380,180,390,DOWN,EQUAL,20,10,12,False,True,False,True,True,False,DOWN,DOWN,585,584
180,380,180,390,180,390,DOWN,EQUAL,10,0,12,False,True,False,True,True,False,DOWN,DOWN,584,684
180,380,180,390,180,390,DOWN,EQUAL,10,0,12,False,True,False,True,True,False,DOWN,DOWN,584,684
180,390,180,400,360,430,EQUAL,EQUAL,220,210,13,False,True,False,True,True,False,DOWN,DOWN,684,683
180,390,180,400,360,430,EQUAL,EQUAL,220,210,13,False,True,False,True,True,False,DOWN,DOWN,684,683
180,400,180,410,360,430,DOWN,RIGHT,210,200,13,False,True,False,True,True,False,DOWN,DOWN,683,682
180,400,180,410,360,430,DOWN,RIGHT,210,200,13,False,True,False,True,True,False,DOWN,DOWN,683,682
180,410,180,420,360,430,DOWN,RIGHT,200,190,13,True,True,False,True,True,False,DOWN,DOWN,682,681
180,410,180,420,360,430,DOWN,RIGHT,200,190,13,True,True,False,True,True,False,DOWN,DOWN,682,681
180,420,180,430,360,430,DOWN,RIGHT,190,180,13,True,True,False,True,True,False,DOWN,DOWN,681,680
180,420,180,430,360,430,DOWN,RIGHT,190,180,13,True,True,False,True,True,False,DOWN,DOWN,681,680
180,430,170,430,360,430,EQUAL,RIGHT,180,190,13,True,True,False,True,True,False,DOWN,LEFT,680,679
180,430,170,430,360,430,EQUAL,RIGHT,180,190,13,True,True,False,True,False,False,LEFT,LEFT,680,679
170,430,160,430,360,430,EQUAL,RIGHT,190,200,13,False,True,True,True,False,False,LEFT,LEFT,679,678
170,430,160,430,360,430,EQUAL,RIGHT,190,200,13,False,True,True,True,False,False,LEFT,LEFT,679,678
160,430,150,430,360,430,EQUAL,RIGHT,200,210,13,False,True,True,True,False,False,LEFT,LEFT,678,677
160,430,150,430,360,430,EQUAL,RIGHT,200,210,13,False,True,True,True,False,False,LEFT,LEFT,678,677
150,430,140,430,360,430,EQUAL,RIGHT,210,220,13,False,True,True,True,False,False,LEFT,LEFT,677,676
150,430,140,430,360,430,EQUAL,RIGHT,210,220,13,False,True,True,True,False,False,LEFT,LEFT,677,676
140,430,130,430,360,430,EQUAL,RIGHT,220,230,13,False,True,True,True,False,False,LEFT,LEFT,676,675
140,430,130,430,360,430,EQUAL,RIGHT,220,230,13,False,True,True,True,False,False,LEFT,LEFT,676,675
130,430,130,420,360,430,EQUAL,RIGHT,230,240,13,False,True,True,True,False,False,LEFT,UP,675,674
130,430,130,420,360,430,EQUAL,RIGHT,230,240,13,False,True,True,True,False,False,UP,UP,675,674
130,420,130,410,360,430,DOWN,RIGHT,240,250,13,True,True,True,False,False,False,UP,UP,674,673
130,420,130,410,360,430,DOWN,RIGHT,240,250,13,True,True,True,False,False,False,UP,UP,674,673
130,410,130,400,360,430,DOWN,RIGHT,250,260,13,True,True,True,False,False,False,UP,UP,673,672
130,410,130,400,360,430,DOWN,RIGHT,250,260,13,True,True,True,False,False,False,UP,UP,673,672
130,400,130,390,360,430,DOWN,RIGHT,260,270,13,True,True,True,False,False,False,UP,UP,672,671
130,400,130,390,360,430,DOWN,RIGHT,260,270,13,True,True,True,False,False,False,UP,UP,672,671
130,390,140,390,360,430,DOWN,RIGHT,270,260,13,True,True,True,False,False,False,UP,RIGHT,671,670
130,390,140,390,360,430,DOWN,RIGHT,270,260,13,True,True,True,False,True,False,RIGHT,RIGHT,671,670
140,390,150,390,360,430,DOWN,RIGHT,260,250,13,True,False,True,True,True,False,RIGHT,RIGHT,670,669
140,390,150,390,360,430,DOWN,RIGHT,260,250,13,True,False,True,True,True,False,RIGHT,RIGHT,670,669
150,390,160,390,360,430,DOWN,RIGHT,250,240,13,True,False,True,True,True,False,RIGHT,RIGHT,669,668
150,390,160,390,360,430,DOWN,RIGHT,250,240,13,True,False,True,True,True,False,RIGHT,RIGHT,669,668
160,390,170,390,360,430,DOWN,RIGHT,240,230,13,True,False,True,True,True,False,RIGHT,RIGHT,668,667
160,390,170,390,360,430,DOWN,RIGHT,240,230,13,True,False,True,True,True,False,RIGHT,RIGHT,668,667
170,390,180,390,360,430,DOWN,RIGHT,230,220,13,True,False,True,True,True,False,RIGHT,RIGHT,667,666
170,390,180,390,360,430,DOWN,RIGHT,230,220,13,True,False,True,True,True,False,RIGHT,RIGHT,667,666
180,390,190,390,360,430,DOWN,RIGHT,220,210,13,True,False,True,True,True,False,RIGHT,RIGHT,666,665
180,390,190,390,360,430,DOWN,RIGHT,220,210,13,True,False,True,True,True,False,RIGHT,RIGHT,666,665
190,390,190,400,360,430,DOWN,RIGHT,210,200,13,True,False,True,True,True,False,RIGHT,DOWN,665,664
190,390,190,400,360,430,DOWN,RIGHT,210,200,13,True,False,True,True,True,False,DOWN,DOWN,665,664
190,400,190,410,360,430,DOWN,RIGHT,200,190,13,True,True,False,True,True,False,DOWN,DOWN,664,663
190,400,190,410,360,430,DOWN,RIGHT,200,190,13,True,True,False,True,True,False,DOWN,DOWN,664,663
190,410,200,410,360,430,DOWN,RIGHT,190,180,13,True,True,False,True,True,False,DOWN,RIGHT,663,662
190,410,200,410,360,430,DOWN,RIGHT,190,180,13,True,True,False,True,False,False,RIGHT,RIGHT,663,662
200,410,210,410,360,430,DOWN,RIGHT,180,170,13,True,False,True,True,False,False,RIGHT,RIGHT,662,661
200,410,210,410,360,430,DOWN,RIGHT,180,170,13,True,False,True,True,False,False,RIGHT,RIGHT,662,661
210,410,220,410,360,430,DOWN,RIGHT,170,160,13,True,False,True,True,False,False,RIGHT,RIGHT,661,660
210,410,220,410,360,430,DOWN,RIGHT,170,160,13,True,False,True,True,False,False,RIGHT,RIGHT,661,660
220,410,230,410,360,430,DOWN,RIGHT,160,150,13,True,False,True,True,False,False,RIGHT,RIGHT,660,659
220,410,230,410,360,430,DOWN,RIGHT,160,150,13,True,False,True,True,False,False,RIGHT,RIGHT,660,659
230,410,240,410,360,430,DOWN,RIGHT,150,140,13,True,False,True,True,False,False,RIGHT,RIGHT,659,658
230,410,240,410,360,430,DOWN,RIGHT,150,140,13,True,False,True,True,False,False,RIGHT,RIGHT,659,658
240,410,240,420,360,430,DOWN,RIGHT,140,130,13,True,False,True,True,False,False,RIGHT,DOWN,658,657
240,410,240,420,360,430,DOWN,RIGHT,140,130,13,True,False,True,True,False,False,DOWN,DOWN,658,657
240,420,240,430,360,430,DOWN,RIGHT,130,120,13,True,True,False,True,False,False,DOWN,DOWN,657,656
240,420,240,430,360,430,DOWN,RIGHT,130,120,13,True,True,False,True,False,False,DOWN,DOWN,657,656
240,430,250,430,360,430,EQUAL,RIGHT,120,110,13,True,True,False,True,False,False,DOWN,RIGHT,656,655
240,430,250,430,360,430,EQUAL,RIGHT,120,110,13,True,True,False,True,False,False,RIGHT,RIGHT,656,655
250,430,260,430,360,430,EQUAL,RIGHT,110,100,13,True,False,True,True,False,False,RIGHT,RIGHT,655,654
250,430,260,430,360,430,EQUAL,RIGHT,110,100,13,True,False,True,True,False,False,RIGHT,RIGHT,655,654
260,430,270,430,360,430,EQUAL,RIGHT,100,90,13,True,False,True,True,False,False,RIGHT,RIGHT,654,653
260,430,270,430,360,430,EQUAL,RIGHT,100,90,13,True,False,True,True,False,False,RIGHT,RIGHT,654,653
270,430,280,430,360,430,EQUAL,RIGHT,90,80,13,True,False,True,True,False,False,RIGHT,RIGHT,653,652
270,430,280,430,360,430,EQUAL,RIGHT,90,80,13,True,False,True,True,False,False,RIGHT,RIGHT,653,652
280,430,290,430,360,430,EQUAL,RIGHT,80,70,13,True,False,True,True,False,False,RIGHT,RIGHT,652,651
280,430,290,430,360,430,EQUAL,RIGHT,80,70,13,True,False,True,True,False,False,RIGHT,RIGHT,652,651
290,430,300,430,360,430,EQUAL,RIGHT,70,60,13,True,False,True,True,False,False,RIGHT,RIGHT,651,650
290,430,300,430,360,430,EQUAL,RIGHT,70,60,13,True,False,True,True,False,False,RIGHT,RIGHT,651,650
300,430,310,430,360,430,EQUAL,RIGHT,60,50,13,True,False,True,True,False,False,RIGHT,RIGHT,650,649
300,430,310,430,360,430,EQUAL,RIGHT,60,50,13,True,False,True,True,False,False,RIGHT,RIGHT,650,649
310,430,320,430,360,430,EQUAL,RIGHT,50,40,13,True,False,True,True,False,False,RIGHT,RIGHT,649,648
310,430,320,430,360,430,EQUAL,RIGHT,50,40,13,True,False,True,True,False,False,RIGHT,RIGHT,649,648
320,430,330,430,360,430,EQUAL,RIGHT,40,30,13,True,False,True,True,False,False,RIGHT,RIGHT,648,647
320,430,330,430,360,430,EQUAL,RIGHT,40,30,13,True,False,True,True,False,False,RIGHT,RIGHT,648,647
330,430,340,430,360,430,EQUAL,RIGHT,30,20,13,True,False,True,True,False,False,RIGHT,RIGHT,647,646
330,430,340,430,360,430,EQUAL,RIGHT,30,20,13,True,False,True,True,False,False,RIGHT,RIGHT,647,646
340,430,350,430,360,430,EQUAL,RIGHT,20,10,13,True,False,True,True,False,False,RIGHT,RIGHT,646,645
340,430,350,430,360,430,EQUAL,RIGHT,20,10,13,True,False,True,True,False,False,RIGHT,RIGHT,646,645
350,430,360,430,360,430,EQUAL,RIGHT,10,0,13,True,False,True,True,False,False,RIGHT,RIGHT,645,745
350,430,360,430,360,430,EQUAL,RIGHT,10,0,13,True,False,True,True,False,False,RIGHT,RIGHT,645,745
360,430,370,430,100,330,EQUAL,EQUAL,360,370,14,True,False,True,True,False,False,RIGHT,RIGHT,745,744
360,430,370,430,100,330,EQUAL,EQUAL,360,370,14,True,False,True,True,False,False,RIGHT,RIGHT,745,744
370,430,380,430,100,330,UP,LEFT,370,380,14,True,False,True,True,False,False,RIGHT,RIGHT,744,743
370,430,380,430,100,330,UP,LEFT,370,380,14,True,False,True,True,False,False,RIGHT,RIGHT,744,743
380,430,380,420,100,330,UP,LEFT,380,370,14,True,False,True,True,False,False,RIGHT,UP,743,742
380,430,380,420,100,330,UP,LEFT,380,370,14,True,False,True,True,False,False,UP,UP,743,742
380,420,380,410,100,330,UP,LEFT,370,360,14,True,True,True,False,False,False,UP,UP,742,741
380,420,380,410,100,330,UP,LEFT,370,360,14,True,True,True,False,False,False,UP,UP,742,741
380,410,380,400,100,330,UP,LEFT,360,350,14,True,True,True,False,False,False,UP,UP,741,740
380,410,380,400,100,330,UP,LEFT,360,350,14,True,True,True,False,False,False,UP,UP,741,740
380,400,380,390,100,330,UP,LEFT,350,340,14,True,True,True,False,False,False,UP,UP,740,739
380,400,380,390,100,330,UP,LEFT,350,340,14,True,True,True,False,False,False,UP,UP,740,739
380,390,380,380,100,330,UP,LEFT,340,330,14,True,True,True,False,False,False,UP,UP,739,738
380,390,380,380,100,330,UP,LEFT,340,330,14,True,True,True,False,False,False,UP,UP,739,738
380,380,380,370,100,330,UP,LEFT,330,320,14,True,True,True,False,False,False,UP,UP,738,737
380,380,380,370,100,330,UP,LEFT,330,320,14,True,True,True,False,False,False,UP,UP,738,737
380,370,380,360,100,330,UP,LEFT,320,310,14,True,True,True,False,False,False,UP,UP,737,736
380,370,380,360,100,330,UP,LEFT,320,310,14,True,True,True,False,False,False,UP,UP,737,736
380,360,380,350,100,330,UP,LEFT,310,300,14,True,True,True,False,False,False,UP,UP,736,735
380,360,380,350,100,330,UP,LEFT,310,300,14,True,True,True,False,False,False,UP,UP,736,735
380,350,370,350,100,330,UP,LEFT,300,290,14,True,True,True,False,False,False,UP,LEFT,735,734
380,350,370,350,100,330,UP,LEFT,300,290,14,True,True,True,False,True,False,LEFT,LEFT,735,734
370,350,360,350,100,330,UP,LEFT,290,280,14,False,True,True,True,True,False,LEFT,LEFT,734,733
370,350,360,350,100,330,UP,LEFT,290,280,14,False,True,True,True,True,False,LEFT,LEFT,734,733
360,350,350,350,100,330,UP,LEFT,280,270,14,False,True,True,True,True,False,LEFT,LEFT,733,732
360,350,350,350,100,330,UP,LEFT,280,270,14,False,True,True,True,True,False,LEFT,LEFT,733,732
350,350,340,350,100,330,UP,LEFT,270,260,14,False,True,True,True,True,False,LEFT,LEFT,732,731
350,350,340,350,100,330,UP,LEFT,270,260,14,False,True,True,True,True,False,LEFT,LEFT,732,731
340,350,330,350,100,330,UP,LEFT,260,250,14,False,True,True,True,True,False,LEFT,LEFT,731,730
340,350,330,350,100,330,UP,LEFT,260,250,14,False,True,True,True,True,False,LEFT,LEFT,731,730
330,350,320,350,100,330,UP,LEFT,250,240,14,False,True,True,True,True,False,LEFT,LEFT,730,729
330,350,320,350,100,330,UP,LEFT,250,240,14,False,True,True,True,True,False,LEFT,LEFT,730,729
320,350,310,350,100,330,UP,LEFT,240,230,14,False,True,True,True,True,False,LEFT,LEFT,729,728
320,350,310,350,100,330,UP,LEFT,240,230,14,False,True,True,True,True,False,LEFT,LEFT,729,728
310,350,300,350,100,330,UP,LEFT,230,220,14,False,True,True,True,True,False,LEFT,LEFT,728,727
310,350,300,350,100,330,UP,LEFT,230,220,14,False,True,True,True,True,False,LEFT,LEFT,728,727
300,350,290,350,100,330,UP,LEFT,220,210,14,False,True,True,True,True,False,LEFT,LEFT,727,726
300,350,290,350,100,330,UP,LEFT,220,210,14,False,True,True,True,True,False,LEFT,LEFT,727,726
290,350,290,340,100,330,UP,LEFT,210,200,14,False,True,True,True,True,False,LEFT,UP,726,725
290,350,290,340,100,330,UP,LEFT,210,200,14,False,True,True,True,False,False,UP,UP,726,725
290,340,280,340,100,330,UP,LEFT,200,190,14,True,True,True,False,False,False,UP,LEFT,725,724
290,340,280,340,100,330,UP,LEFT,200,190,14,True,True,True,False,False,False,LEFT,LEFT,725,724
280,340,270,340,100,330,UP,LEFT,190,180,14,False,True,True,True,False,False,LEFT,LEFT,724,723
280,340,270,340,100,330,UP,LEFT,190,180,14,False,True,True,True,False,False,LEFT,LEFT,724,723
270,340,260,340,100,330,UP,LEFT,180,170,14,False,True,True,True,False,False,LEFT,LEFT,723,722
270,340,260,340,100,330,UP,LEFT,180,170,14,False,True,True,True,False,False,LEFT,LEFT,723,722
260,340,250,340,100,330,UP,LEFT,170,160,14,False,True,True,True,False,False,LEFT,LEFT,722,721
260,340,250,340,100,330,UP,LEFT,170,160,14,False,True,True,True,False,False,LEFT,LEFT,722,721
250,340,240,340,100,330,UP,LEFT,160,150,14,False,True,True,True,False,False,LEFT,LEFT,721,720
250,340,240,340,100,330,UP,LEFT,160,150,14,False,True,True,True,False,False,LEFT,LEFT,721,720
240,340,230,340,100,330,UP,LEFT,150,140,14,False,True,True,True,False,False,LEFT,LEFT,720,719
240,340,230,340,100,330,UP,LEFT,150,140,14,False,True,True,True,False,False,LEFT,LEFT,720,719
230,340,220,340,100,330,UP,LEFT,140,130,14,False,True,True,True,False,False,LEFT,LEFT,719,718
230,340,220,340,100,330,UP,LEFT,140,130,14,False,True,True,True,False,False,LEFT,LEFT,719,718
220,340,210,340,100,330,UP,LEFT,130,120,14,False,True,True,True,False,False,LEFT,LEFT,718,717
220,340,210,340,100,330,UP,LEFT,130,120,14,False,True,True,True,False,False,LEFT,LEFT,718,717
210,340,200,340,100,330,UP,LEFT,120,110,14,False,True,True,True,False,False,LEFT,LEFT,717,716
210,340,200,340,100,330,UP,LEFT,120,110,14,False,True,True,True,False,False,LEFT,LEFT,717,716
200,340,200,330,100,330,UP,LEFT,110,100,14,False,True,True,True,False,False,LEFT,UP,716,715
200,340,200,330,100,330,UP,LEFT,110,100,14,False,True,True,True,False,False,UP,UP,716,715
200,330,190,330,100,330,EQUAL,LEFT,100,90,14,True,True,True,False,False,False,UP,LEFT,715,714
200,330,190,330,100,330,EQUAL,LEFT,100,90,14,True,True,True,False,False,False,LEFT,LEFT,715,714
190,330,180,330,100,330,EQUAL,LEFT,90,80,14,False,True,True,True,False,False,LEFT,LEFT,714,713
190,330,180,330,100,330,EQUAL,LEFT,90,80,14,False,True,True,True,False,False,LEFT,LEFT,714,713
180,330,170,330,100,330,EQUAL,LEFT,80,70,14,False,True,True,True,False,False,LEFT,LEFT,713,712
180,330,170,330,100,330,EQUAL,LEFT,80,70,14,False,True,True,True,False,False,LEFT,LEFT,713,712
170,330,160,330,100,330,EQUAL,LEFT,70,60,14,False,True,True,True,False,False,LEFT,LEFT,712,711
170,330,160,330,100,330,EQUAL,LEFT,70,60,14,False,True,True,True,False,False,LEFT,LEFT,712,711
160,330,150,330,100,330,EQUAL,LEFT,60,50,14,False,True,True,True,False,False,LEFT,LEFT,711,710
160,330,150,330,100,330,EQUAL,LEFT,60,50,14,False,True,True,True,False,False,LEFT,LEFT,711,710
150,330,140,330,100,330,EQUAL,LEFT,50,40,14,False,True,True,True,False,False,LEFT,LEFT,710,709
150,330,140,330,100,330,EQUAL,LEFT,50,40,14,False,True,True,True,False,False,LEFT,LEFT,710,709
140,330,130,330,100,330,EQUAL,LEFT,40,30,14,False,True,True,True,False,False,LEFT,LEFT,709,708
140,330,130,330,100,330,EQUAL,LEFT,40,30,14,False,True,True,True,False,False,LEFT,LEFT,709,708
130,330,120,330,100,330,EQUAL,LEFT,30,20,14,False,True,True,True,False,False,LEFT,LEFT,708,707
130,330,120,330,100,330,EQUAL,LEFT,30,20,14,False,True,True,True,False,False,LEFT,LEFT,708,707
120,330,110,330,100,330,EQUAL,LEFT,20,10,14,False,True,True,True,False,False,LEFT,LEFT,707,706
120,330,110,330,100,330,EQUAL,LEFT,20,10,14,False,True,True,True,False,False,LEFT,LEFT,707,706
110,330,100,330,100,330,EQUAL,LEFT,10,0,14,False,True,True,True,False,False,LEFT,LEFT,706,806
110,330,100,330,100,330,EQUAL,LEFT,10,0,14,False,True,True,True,False,False,LEFT,LEFT,706,806
100,330,90,330,370,220,EQUAL,EQUAL,380,390,15,False,True,True,True,False,False,LEFT,LEFT,806,805
100,330,90,330,370,220,EQUAL,EQUAL,380,390,15,False,True,True,True,False,False,LEFT,LEFT,806,805
90,330,80,330,370,220,UP,RIGHT,390,400,15,False,True,True,True,False,False,LEFT,LEFT,805,804
90,330,80,330,370,220,UP,RIGHT,390,400,15,False,True,True,True,False,False,LEFT,LEFT,805,804
80,330,70,330,370,220,UP,RIGHT,400,410,15,False,True,True,True,False,False,LEFT,LEFT,804,803
80,330,70,330,370,220,UP,RIGHT,400,410,15,False,True,True,True,False,False,LEFT,LEFT,804,803
70,330,70,320,370,220,UP,RIGHT,410,400,15,False,True,True,True,False,False,LEFT,UP,803,802
70,330,70,320,370,220,UP,RIGHT,410,400,15,False,True,True,True,False,False,UP,UP,803,802
70,320,70,310,370,220,UP,RIGHT,400,390,15,True,True,True,False,False,False,UP,UP,802,801
70,320,70,310,370,220,UP,RIGHT,400,390,15,True,True,True,False,False,False,UP,UP,802,801
70,310,70,300,370,220,UP,RIGHT,390,380,15,True,True,True,False,False,False,UP,UP,801,800
70,310,70,300,370,220,UP,RIGHT,390,380,15,True,True,True,False,False,False,UP,UP,801,800
70,300,70,290,370,220,UP,RIGHT,380,370,15,True,True,True,False,False,False,UP,UP,800,799
70,300,70,290,370,220,UP,RIGHT,380,370,15,True,True,True,False,False,False,UP,UP,800,799
70,290,70,280,370,220,UP,RIGHT,370,360,15,True,True,True,False,False,False,UP,UP,799,798
70,290,70,280,370,220,UP,RIGHT,370,360,15,True,True,True,False,False,False,UP,UP,799,798
70,280,70,270,370,220,UP,RIGHT,360,350,15,True,True,True,False,False,False,UP,UP,798,797
70,280,70,270,370,220,UP,RIGHT,360,350,15,True,True,True,False,False,False,UP,UP,798,797
70,270,70,260,370,220,UP,RIGHT,350,340,15,True,True,True,False,False,False,UP,UP,797,796
70,270,70,260,370,220,UP,RIGHT,350,340,15,True,True,True,False,False,False,UP,UP,797,796
70,260,70,250,370,220,UP,RIGHT,340,330,15,True,True,True,False,False,False,UP,UP,796,795
70,260,70,250,370,220,UP,RIGHT,340,330,15,True,True,True,False,False,False,UP,UP,796,795
70,250,70,240,370,220,UP,RIGHT,330,320,15,True,True,True,False,False,False,UP,UP,795,794
70,250,70,240,370,220,UP,RIGHT,330,320,15,True,True,True,False,False,False,UP,UP,795,794
70,240,70,230,370,220,UP,RIGHT,320,310,15,True,True,True,False,False,False,UP,UP,794,793
70,240,70,230,370,220,UP,RIGHT,320,310,15,True,True,True,False,False,False,UP,UP,794,793
70,230,70,220,370,220,UP,RIGHT,310,300,15,True,True,True,False,False,False,UP,UP,793,792
70,230,70,220,370,220,UP,RIGHT,310,300,15,True,True,True,False,False,False,UP,UP,793,792
70,220,80,220,370,220,EQUAL,RIGHT,300,290,15,True,True,True,False,False,False,UP,RIGHT,792,791
70,220,80,220,370,220,EQUAL,RIGHT,300,290,15,True,True,True,False,False,False,RIGHT,RIGHT,792,791
80,220,90,220,370,220,EQUAL,RIGHT,290,280,15,True,False,True,True,False,False,RIGHT,RIGHT,791,790
80,220,90,220,370,220,EQUAL,RIGHT,290,280,15,True,False,True,True,False,False,RIGHT,RIGHT,791,790
90,220,100,220,370,220,EQUAL,RIGHT,280,270,15,True,False,True,True,False,False,RIGHT,RIGHT,790,789
90,220,100,220,370,220,EQUAL,RIGHT,280,270,15,True,False,True,True,False,False,RIGHT,RIGHT,790,789
100,220,110,220,370,220,EQUAL,RIGHT,270,260,15,True,False,True,True,False,False,RIGHT,RIGHT,789,788
100,220,110,220,370,220,EQUAL,RIGHT,270,260,15,True,False,True,True,False,False,RIGHT,RIGHT,789,788
110,220,120,220,370,220,EQUAL,RIGHT,260,250,15,True,False,True,True,False,False,RIGHT,RIGHT,788,787
110,220,120,220,370,220,EQUAL,RIGHT,260,250,15,True,False,True,True,False,False,RIGHT,RIGHT,788,787
120,220,130,220,370,220,EQUAL,RIGHT,250,240,15,True,False,True,True,False,False,RIGHT,RIGHT,787,786
120,220,130,220,370,220,EQUAL,RIGHT,250,240,15,True,False,True,True,False,False,RIGHT,RIGHT,787,786
130,220,140,220,370,220,EQUAL,RIGHT,240,230,15,True,False,True,True,False,False,RIGHT,RIGHT,786,785
130,220,140,220,370,220,EQUAL,RIGHT,240,230,15,True,False,True,True,False,False,RIGHT,RIGHT,786,785
140,220,150,220,370,220,EQUAL,RIGHT,230,220,15,True,False,True,True,False,False,RIGHT,RIGHT,785,784
140,220,150,220,370,220,EQUAL,RIGHT,230,220,15,True,False,True,True,False,False,RIGHT,RIGHT,785,784
150,220,160,220,370,220,EQUAL,RIGHT,220,210,15,True,False,True,True,False,False,RIGHT,RIGHT,784,783
150,220,160,220,370,220,EQUAL,RIGHT,220,210,15,True,False,True,True,False,False,RIGHT,RIGHT,784,783
160,220,170,220,370,220,EQUAL,RIGHT,210,200,15,True,False,True,True,False,False,RIGHT,RIGHT,783,782
160,220,170,220,370,220,EQUAL,RIGHT,210,200,15,True,False,True,True,False,False,RIGHT,RIGHT,783,782
170,220,180,220,370,220,EQUAL,RIGHT,200,190,15,True,False,True,True,False,False,RIGHT,RIGHT,782,781
170,220,180,220,370,220,EQUAL,RIGHT,200,190,15,True,False,True,True,False,False,RIGHT,RIGHT,782,781
180,220,190,220,370,220,EQUAL,RIGHT,190,180,15,True,False,True,True,False,False,RIGHT,RIGHT,781,780
180,220,190,220,370,220,EQUAL,RIGHT,190,180,15,True,False,True,True,False,False,RIGHT,RIGHT,781,780
190,220,200,220,370,220,EQUAL,RIGHT,180,170,15,True,False,True,True,False,False,RIGHT,RIGHT,780,779
190,220,200,220,370,220,EQUAL,RIGHT,180,170,15,True,False,True,True,False,False,RIGHT,RIGHT,780,779
200,220,210,220,370,220,EQUAL,RIGHT,170,160,15,True,False,True,True,False,False,RIGHT,RIGHT,779,778
200,220,210,220,370,220,EQUAL,RIGHT,170,160,15,True,False,True,True,False,False,RIGHT,RIGHT,779,778
210,220,220,220,370,220,EQUAL,RIGHT,160,150,15,True,False,True,True,False,False,RIGHT,RIGHT,778,777
210,220,220,220,370,220,EQUAL,RIGHT,160,150,15,True,False,True,True,False,False,RIGHT,RIGHT,778,777
220,220,230,220,370,220,EQUAL,RIGHT,150,140,15,True,False,True,True,False,False,RIGHT,RIGHT,777,776
220,220,230,220,370,220,EQUAL,RIGHT,150,140,15,True,False,True,True,False,False,RIGHT,RIGHT,777,776
230,220,240,220,370,220,EQUAL,RIGHT,140,130,15,True,False,True,True,False,False,RIGHT,RIGHT,776,775
230,220,240,220,370,220,EQUAL,RIGHT,140,130,15,True,False,True,True,False,False,RIGHT,RIGHT,776,775
240,220,250,220,370,220,EQUAL,RIGHT,130,120,15,True,False,True,True,False,False,RIGHT,RIGHT,775,774
240,220,250,220,370,220,EQUAL,RIGHT,130,120,15,True,False,True,True,False,False,RIGHT,RIGHT,775,774
250,220,260,220,370,220,EQUAL,RIGHT,120,110,15,True,False,True,True,False,False,RIGHT,RIGHT,774,773
250,220,260,220,370,220,EQUAL,RIGHT,120,110,15,True,False,True,True,False,False,RIGHT,RIGHT,774,773
260,220,270,220,370,220,EQUAL,RIGHT,110,100,15,True,False,True,True,False,False,RIGHT,RIGHT,773,772
260,220,270,220,370,220,EQUAL,RIGHT,110,100,15,True,False,True,True,False,False,RIGHT,RIGHT,773,772
270,220,280,220,370,220,EQUAL,RIGHT,100,90,15,True,False,True,True,False,False,RIGHT,RIGHT,772,771
270,220,280,220,370,220,EQUAL,RIGHT,100,90,15,True,False,True,True,False,False,RIGHT,RIGHT,772,771
280,220,290,220,370,220,EQUAL,RIGHT,90,80,15,True,False,True,True,False,False,RIGHT,RIGHT,771,770
280,220,290,220,370,220,EQUAL,RIGHT,90,80,15,True,False,True,True,False,False,RIGHT,RIGHT,771,770
290,220,300,220,370,220,EQUAL,RIGHT,80,70,15,True,False,True,True,False,False,RIGHT,RIGHT,770,769
290,220,300,220,370,220,EQUAL,RIGHT,80,70,15,True,False,True,True,False,False,RIGHT,RIGHT,770,769
300,220,310,220,370,220,EQUAL,RIGHT,70,60,15,True,False,True,True,False,False,RIGHT,RIGHT,769,768
300,220,310,220,370,220,EQUAL,RIGHT,70,60,15,True,False,True,True,False,False,RIGHT,RIGHT,769,768
310,220,320,220,370,220,EQUAL,RIGHT,60,50,15,True,False,True,True,False,False,RIGHT,RIGHT,768,767
310,220,320,220,370,220,EQUAL,RIGHT,60,50,15,True,False,True,True,False,False,RIGHT,RIGHT,768,767
320,220,330,220,370,220,EQUAL,RIGHT,50,40,15,True,False,True,True,False,False,RIGHT,RIGHT,767,766
320,220,330,220,370,220,EQUAL,RIGHT,50,40,15,True,False,True,True,False,False,RIGHT,RIGHT,767,766
330,220,340,220,370,220,EQUAL,RIGHT,40,30,15,True,False,True,True,False,False,RIGHT,RIGHT,766,765
330,220,340,220,370,220,EQUAL,RIGHT,40,30,15,True,False,True,True,False,False,RIGHT,RIGHT,766,765
340,220,350,220,370,220,EQUAL,RIGHT,30,20,15,True,False,True,True,False,False,RIGHT,RIGHT,765,764
340,220,350,220,370,220,EQUAL,RIGHT,30,20,15,True,False,True,True,False,False,RIGHT,RIGHT,765,764
350,220,360,220,370,220,EQUAL,RIGHT,20,10,15,True,False,True,True,False,False,RIGHT,RIGHT,764,763
350,220,360,220,370,220,EQUAL,RIGHT,20,10,15,True,False,True,True,False,False,RIGHT,RIGHT,764,763
360,220,370,220,370,220,EQUAL,RIGHT,10,0,15,True,False,True,True,False,False,RIGHT,RIGHT,763,863
360,220,370,220,370,220,EQUAL,RIGHT,10,0,15,True,False,True,True,False,False,RIGHT,RIGHT,763,863
370,220,380,220,450,130,EQUAL,EQUAL,170,160,16,True,False,True,True,False,False,RIGHT,RIGHT,863,862
370,220,380,220,450,130,EQUAL,EQUAL,170,160,16,True,False,True,True,False,False,RIGHT,RIGHT,863,862
380,220,390,220,450,130,UP,RIGHT,160,150,16,True,False,True,True,False,False,RIGHT,RIGHT,862,861
380,220,390,220,450,130,UP,RIGHT,160,150,16,True,False,True,True,False,False,RIGHT,RIGHT,862,861
390,220,400,220,450,130,UP,RIGHT,150,140,16,True,False,True,True,False,False,RIGHT,RIGHT,861,860
390,220,400,220,450,130,UP,RIGHT,150,140,16,True,False,True,True,False,False,RIGHT,RIGHT,861,860
400,220,410,220,450,130,UP,RIGHT,140,130,16,True,False,True,True,False,False,RIGHT,RIGHT,860,859
400,220,410,220,450,130,UP,RIGHT,140,130,16,True,False,True,True,False,False,RIGHT,RIGHT,860,859
410,220,410,210,450,130,UP,RIGHT,130,120,16,True,False,True,True,False,False,RIGHT,UP,859,858
410,220,410,210,450,130,UP,RIGHT,130,120,16,True,False,True,True,False,False,UP,UP,859,858
410,210,410,200,450,130,UP,RIGHT,120,110,16,True,True,True,False,False,False,UP,UP,858,857
410,210,410,200,450,130,UP,RIGHT,120,110,16,True,True,True,False,False,False,UP,UP,858,857
410,200,410,190,450,130,UP,RIGHT,110,100,16,True,True,True,False,False,False,UP,UP,857,856
410,200,410,190,450,130,UP,RIGHT,110,100,16,True,True,True,False,False,False,UP,UP,857,856
410,190,410,180,450,130,UP,RIGHT,100,90,16,True,True,True,False,False,False,UP,UP,856,855
410,190,410,180,450,130,UP,RIGHT,100,90,16,True,True,True,False,False,False,UP,UP,856,855
410,180,410,170,450,130,UP,RIGHT,90,80,16,True,True,True,False,False,False,UP,UP,855,854
410,180,410,170,450,130,UP,RIGHT,90,80,16,True,True,True,False,False,False,UP,UP,855,854
410,170,410,160,450,130,UP,RIGHT,80,70,16,True,True,True,False,False,False,UP,UP,854,853
410,170,410,160,450,130,UP,RIGHT,80,70,16,True,True,True,False,False,False,UP,UP,854,853
410,160,410,150,450,130,UP,RIGHT,70,60,16,True,True,True,False,False,False,UP,UP,853,852
410,160,410,150,450,130,UP,RIGHT,70,60,16,True,True,True,False,False,False,UP,UP,853,852
410,150,420,150,450,130,UP,RIGHT,60,50,16,True,True,True,False,False,False,UP,RIGHT,852,851
410,150,420,150,450,130,UP,RIGHT,60,50,16,True,True,True,False,False,False,RIGHT,RIGHT,852,851
420,150,430,150,450,130,UP,RIGHT,50,40,16,True,False,True,True,False,False,RIGHT,RIGHT,851,850
420,150,430,150,450,130,UP,RIGHT,50,40,16,True,False,True,True,False,False,RIGHT,RIGHT,851,850
430,150,440,150,450,130,UP,RIGHT,40,30,16,True,False,True,True,False,False,RIGHT,RIGHT,850,849
430,150,440,150,450,130,UP,RIGHT,40,30,16,True,False,True,True,False,False,RIGHT,RIGHT,850,849
440,150,450,150,450,130,UP,RIGHT,30,20,16,True,False,True,True,False,False,RIGHT,RIGHT,849,848
440,150,450,150,450,130,UP,RIGHT,30,20,16,True,False,True,True,False,False,RIGHT,RIGHT,849,848
450,150,450,140,450,130,UP,EQUAL,20,10,16,True,False,True,True,False,False,RIGHT,UP,848,847
450,150,450,140,450,130,UP,EQUAL,20,10,16,True,False,True,True,False,False,UP,UP,848,847
450,140,450,130,450,130,UP,EQUAL,10,0,16,True,True,True,False,False,False,UP,UP,847,947
450,140,450,130,450,130,UP,EQUAL,10,0,16,True,True,True,False,False,False,UP,UP,847,947
450,130,450,120,290,450,EQUAL,EQUAL,480,490,17,True,True,True,False,False,False,UP,UP,947,946
450,130,450,120,290,450,EQUAL,EQUAL,480,490,17,True,True,True,False,False,False,UP,UP,947,946
450,120,450,110,290,450,DOWN,LEFT,490,500,17,True,True,True,False,False,False,UP,UP,946,945
450,120,450,110,290,450,DOWN,LEFT,490,500,17,True,True,True,False,False,False,UP,UP,946,945
450,110,450,100,290,450,DOWN,LEFT,500,510,17,True,True,True,False,False,False,UP,UP,945,944
450,110,450,100,290,450,DOWN,LEFT,500,510,17,True,True,True,False,False,False,UP,UP,945,944
450,100,450,90,290,450,DOWN,LEFT,510,520,17,True,True,True,False,False,False,UP,UP,944,943
450,100,450,90,290,450,DOWN,LEFT,510,520,17,True,True,True,False,False,False,UP,UP,944,943
450,90,450,80,290,450,DOWN,LEFT,520,530,17,True,True,True,False,False,False,UP,UP,943,942
450,90,450,80,290,450,DOWN,LEFT,520,530,17,True,True,True,False,False,False,UP,UP,943,942
450,80,440,80,290,450,DOWN,LEFT,530,520,17,True,True,True,False,False,False,UP,LEFT,942,941
450,80,440,80,290,450,DOWN,LEFT,530,520,17,True,True,True,False,False,False,LEFT,LEFT,942,941
440,80,430,80,290,450,DOWN,LEFT,520,510,17,False,True,True,True,False,False,LEFT,LEFT,941,940
440,80,430,80,290,450,DOWN,LEFT,520,510,17,False,True,True,True,False,False,LEFT,LEFT,941,940
430,80,420,80,290,450,DOWN,LEFT,510,500,17,False,True,True,True,False,False,LEFT,LEFT,940,939
430,80,420,80,290,450,DOWN,LEFT,510,500,17,False,True,True,True,False,False,LEFT,LEFT,940,939
420,80,410,80,290,450,DOWN,LEFT,500,490,17,False,True,True,True,False,False,LEFT,LEFT,939,938
420,80,410,80,290,450,DOWN,LEFT,500,490,17,False,True,True,True,False,False,LEFT,LEFT,939,938
410,80,400,80,290,450,DOWN,LEFT,490,480,17,False,True,True,True,False,False,LEFT,LEFT,938,937
410,80,400,80,290,450,DOWN,LEFT,490,480,17,False,True,True,True,False,False,LEFT,LEFT,938,937
400,80,390,80,290,450,DOWN,LEFT,480,470,17,False,True,True,True,False,False,LEFT,LEFT,937,936
400,80,390,80,290,450,DOWN,LEFT,480,470,17,False,True,True,True,False,False,LEFT,LEFT,937,936
390,80,380,80,290,450,DOWN,LEFT,470,460,17,False,True,True,True,False,False,LEFT,LEFT,936,935
390,80,380,80,290,450,DOWN,LEFT,470,460,17,False,True,True,True,False,False,LEFT,LEFT,936,935
380,80,370,80,290,450,DOWN,LEFT,460,450,17,False,True,True,True,False,False,LEFT,LEFT,935,934
380,80,370,80,290,450,DOWN,LEFT,460,450,17,False,True,True,True,False,False,LEFT,LEFT,935,934
370,80,360,80,290,450,DOWN,LEFT,450,440,17,False,True,True,True,False,False,LEFT,LEFT,934,933
370,80,360,80,290,450,DOWN,LEFT,450,440,17,False,True,True,True,False,False,LEFT,LEFT,934,933
360,80,360,90,290,450,DOWN,LEFT,440,430,17,False,True,True,True,False,False,LEFT,DOWN,933,932
360,80,360,90,290,450,DOWN,LEFT,440,430,17,False,True,True,True,True,False,DOWN,DOWN,933,932
360,90,360,100,290,450,DOWN,LEFT,430,420,17,True,True,False,True,True,False,DOWN,DOWN,932,931
360,90,360,100,290,450,DOWN,LEFT,430,420,17,True,True,False,True,True,False,DOWN,DOWN,932,931
360,100,360,110,290,450,DOWN,LEFT,420,410,17,True,True,False,True,True,False,DOWN,DOWN,931,930
360,100,360,110,290,450,DOWN,LEFT,420,410,17,True,True,False,True,True,False,DOWN,DOWN,931,930
360,110,360,120,290,450,DOWN,LEFT,410,400,17,True,True,False,True,True,False,DOWN,DOWN,930,929
360,110,360,120,290,450,DOWN,LEFT,410,400,17,True,True,False,True,True,False,DOWN,DOWN,930,929
360,120,360,130,290,450,DOWN,LEFT,400,390,17,True,True,False,True,True,False,DOWN,DOWN,929,928
360,120,360,130,290,450,DOWN,LEFT,400,390,17,True,True,False,True,True,False,DOWN,DOWN,929,928
360,130,360,140,290,450,DOWN,LEFT,390,380,17,True,True,False,True,True,False,DOWN,DOWN,928,927
360,130,360,140,290,450,DOWN,LEFT,390,380,17,True,True,False,True,True,False,DOWN,DOWN,928,927
360,140,360,150,290,450,DOWN,LEFT,380,370,17,True,True,False,True,True,False,DOWN,DOWN,927,926
360,140,360,150,290,450,DOWN,LEFT,380,370,17,True,True,False,True,True,False,DOWN,DOWN,927,926
360,150,360,160,290,450,DOWN,LEFT,370,360,17,True,True,False,True,True,False,DOWN,DOWN,926,925
360,150,360,160,290,450,DOWN,LEFT,370,360,17,True,True,False,True,True,False,DOWN,DOWN,926,925
360,160,360,170,290,450,DOWN,LEFT,360,350,17,True,True,False,True,True,False,DOWN,DOWN,925,924
360,160,360,170,290,450,DOWN,LEFT,360,350,17,True,True,False,True,True,False,DOWN,DOWN,925,924
360,170,360,180,290,450,DOWN,LEFT,350,340,17,True,True,False,True,True,False,DOWN,DOWN,924,923
360,170,360,180,290,450,DOWN,LEFT,350,340,17,True,True,False,True,True,False,DOWN,DOWN,924,923
360,180,360,190,290,450,DOWN,LEFT,340,330,17,True,True,False,True,True,False,DOWN,DOWN,923,922
360,180,360,190,290,450,DOWN,LEFT,340,330,17,True,True,False,True,True,False,DOWN,DOWN,923,922
360,190,360,200,290,450,DOWN,LEFT,330,320,17,True,True,False,True,True,False,DOWN,DOWN,922,921
360,190,360,200,290,450,DOWN,LEFT,330,320,17,True,True,False,True,True,False,DOWN,DOWN,922,921
360,200,360,210,290,450,DOWN,LEFT,320,310,17,True,True,False,True,True,False,DOWN,DOWN,921,920
360,200,360,210,290,450,DOWN,LEFT,320,310,17,True,True,False,True,True,False,DOWN,DOWN,921,920
360,210,360,220,290,450,DOWN,LEFT,310,300,17,True,True,False,True,True,False,DOWN,DOWN,920,919
360,210,360,220,290,450,DOWN,LEFT,310,300,17,True,True,False,True,True,False,DOWN,DOWN,920,919
360,220,360,230,290,450,DOWN,LEFT,300,290,17,True,True,False,True,True,False,DOWN,DOWN,919,918
360,220,360,230,290,450,DOWN,LEFT,300,290,17,True,True,False,True,True,False,DOWN,DOWN,919,918
360,230,360,240,290,450,DOWN,LEFT,290,280,17,True,True,False,True,True,False,DOWN,DOWN,918,917
360,230,360,240,290,450,DOWN,LEFT,290,280,17,True,True,False,True,True,False,DOWN,DOWN,918,917
360,240,360,250,290,450,DOWN,LEFT,280,270,17,True,True,False,True,True,False,DOWN,DOWN,917,916
360,240,360,250,290,450,DOWN,LEFT,280,270,17,True,True,False,True,True,False,DOWN,DOWN,917,916
360,250,360,260,290,450,DOWN,LEFT,270,260,17,True,True,False,True,True,False,DOWN,DOWN,916,915
360,250,360,260,290,450,DOWN,LEFT,270,260,17,True,True,False,True,True,False,DOWN,DOWN,916,915
360,260,360,270,290,450,DOWN,LEFT,260,250,17,True,True,False,True,True,False,DOWN,DOWN,915,914
360,260,360,270,290,450,DOWN,LEFT,260,250,17,True,True,False,True,True,False,DOWN,DOWN,915,914
360,270,360,280,290,450,DOWN,LEFT,250,240,17,True,True,False,True,True,False,DOWN,DOWN,914,913
360,270,360,280,290,450,DOWN,LEFT,250,240,17,True,True,False,True,True,False,DOWN,DOWN,914,913
360,280,360,290,290,450,DOWN,LEFT,240,230,17,True,True,False,True,True,False,DOWN,DOWN,913,912
360,280,360,290,290,450,DOWN,LEFT,240,230,17,True,True,False,True,True,False,DOWN,DOWN,913,912
360,290,360,300,290,450,DOWN,LEFT,230,220,17,True,True,False,True,True,False,DOWN,DOWN,912,911
360,290,360,300,290,450,DOWN,LEFT,230,220,17,True,True,False,True,True,False,DOWN,DOWN,912,911
360,300,360,310,290,450,DOWN,LEFT,220,210,17,True,True,False,True,True,False,DOWN,DOWN,911,910
360,300,360,310,290,450,DOWN,LEFT,220,210,17,True,True,False,True,True,False,DOWN,DOWN,911,910
360,310,360,320,290,450,DOWN,LEFT,210,200,17,True,True,False,True,True,False,DOWN,DOWN,910,909
360,310,360,320,290,450,DOWN,LEFT,210,200,17,True,True,False,True,True,False,DOWN,DOWN,910,909
360,320,360,330,290,450,DOWN,LEFT,200,190,17,True,True,False,True,True,False,DOWN,DOWN,909,908
360,320,360,330,290,450,DOWN,LEFT,200,190,17,True,True,False,True,True,False,DOWN,DOWN,909,908
360,330,360,340,290,450,DOWN,LEFT,190,180,17,True,True,False,True,True,False,DOWN,DOWN,908,907
360,330,360,340,290,450,DOWN,LEFT,190,180,17,True,True,False,True,True,False,DOWN,DOWN,908,907
360,340,360,350,290,450,DOWN,LEFT,180,170,17,True,True,False,True,True,False,DOWN,DOWN,907,906
360,340,360,350,290,450,DOWN,LEFT,180,170,17,True,True,False,True,True,False,DOWN,DOWN,907,906
360,350,360,360,290,450,DOWN,LEFT,170,160,17,True,True,False,True,True,False,DOWN,DOWN,906,905
360,350,360,360,290,450,DOWN,LEFT,170,160,17,True,True,False,True,True,False,DOWN,DOWN,906,905
360,360,360,370,290,450,DOWN,LEFT,160,150,17,True,True,False,True,True,False,DOWN,DOWN,905,904
360,360,360,370,290,450,DOWN,LEFT,160,150,17,True,True,False,True,True,False,DOWN,DOWN,905,904
360,370,360,380,290,450,DOWN,LEFT,150,140,17,True,True,False,True,True,False,DOWN,DOWN,904,903
360,370,360,380,290,450,DOWN,LEFT,150,140,17,True,True,False,True,True,False,DOWN,DOWN,904,903
360,380,360,390,290,450,DOWN,LEFT,140,130,17,True,True,False,True,True,False,DOWN,DOWN,903,902
360,380,360,390,290,450,DOWN,LEFT,140,130,17,True,True,False,True,True,False,DOWN,DOWN,903,902
360,390,360,400,290,450,DOWN,LEFT,130,120,17,True,True,False,True,True,False,DOWN,DOWN,902,901
360,390,360,400,290,450,DOWN,LEFT,130,120,17,True,True,False,True,True,False,DOWN,DOWN,902,901
360,400,360,410,290,450,DOWN,LEFT,120,110,17,True,True,False,True,True,False,DOWN,DOWN,901,900
360,400,360,410,290,450,DOWN,LEFT,120,110,17,True,True,False,True,True,False,DOWN,DOWN,901,900
360,410,360,420,290,450,DOWN,LEFT,110,100,17,True,True,False,True,True,False,DOWN,DOWN,900,899
360,410,360,420,290,450,DOWN,LEFT,110,100,17,True,True,False,True,True,False,DOWN,DOWN,900,899
360,420,360,430,290,450,DOWN,LEFT,100,90,17,True,True,False,True,True,False,DOWN,DOWN,899,898
360,420,360,430,290,450,DOWN,LEFT,100,90,17,True,True,False,True,True,False,DOWN,DOWN,899,898
360,430,360,440,290,450,DOWN,LEFT,90,80,17,True,True,False,True,True,False,DOWN,DOWN,898,897
360,430,360,440,290,450,DOWN,LEFT,90,80,17,True,True,False,True,True,False,DOWN,DOWN,898,897
360,440,360,450,290,450,DOWN,LEFT,80,70,17,True,True,False,True,True,False,DOWN,DOWN,897,896
360,440,360,450,290,450,DOWN,LEFT,80,70,17,True,True,False,True,True,False,DOWN,DOWN,897,896
360,450,350,450,290,450,EQUAL,LEFT,70,60,17,True,True,False,True,True,False,DOWN,LEFT,896,895
360,450,350,450,290,450,EQUAL,LEFT,70,60,17,True,True,False,True,False,False,LEFT,LEFT,896,895
350,450,340,450,290,450,EQUAL,LEFT,60,50,17,False,True,True,True,False,False,LEFT,LEFT,895,894
350,450,340,450,290,450,EQUAL,LEFT,60,50,17,False,True,True,True,False,False,LEFT,LEFT,895,894
340,450,330,450,290,450,EQUAL,LEFT,50,40,17,False,True,True,True,False,False,LEFT,LEFT,894,893
340,450,330,450,290,450,EQUAL,LEFT,50,40,17,False,True,True,True,False,False,LEFT,LEFT,894,893
330,450,320,450,290,450,EQUAL,LEFT,40,30,17,False,True,True,True,False,False,LEFT,LEFT,893,892
330,450,320,450,290,450,EQUAL,LEFT,40,30,17,False,True,True,True,False,False,LEFT,LEFT,893,892
320,450,310,450,290,450,EQUAL,LEFT,30,20,17,False,True,True,True,False,False,LEFT,LEFT,892,891
320,450,310,450,290,450,EQUAL,LEFT,30,20,17,False,True,True,True,False,False,LEFT,LEFT,892,891
310,450,300,450,290,450,EQUAL,LEFT,20,10,17,False,True,True,True,False,False,LEFT,LEFT,891,890
310,450,300,450,290,450,EQUAL,LEFT,20,10,17,False,True,True,True,False,False,LEFT,LEFT,891,890
300,450,290,450,290,450,EQUAL,LEFT,10,0,17,False,True,True,True,False,False,LEFT,LEFT,890,990
300,450,290,450,290,450,EQUAL,LEFT,10,0,17,False,True,True,True,False,False,LEFT,LEFT,890,990
290,450,280,450,210,280,EQUAL,EQUAL,250,240,18,False,True,True,True,False,False,LEFT,LEFT,990,989
290,450,280,450,210,280,EQUAL,EQUAL,250,240,18,False,True,True,True,False,False,LEFT,LEFT,990,989
280,450,270,450,210,280,UP,LEFT,240,230,18,False,True,True,True,False,False,LEFT,LEFT,989,988
280,450,270,450,210,280,UP,LEFT,240,230,18,False,True,True,True,False,False,LEFT,LEFT,989,988
270,450,260,450,210,280,UP,LEFT,230,220,18,False,True,True,True,False,False,LEFT,LEFT,988,987
270,450,260,450,210,280,UP,LEFT,230,220,18,False,True,True,True,False,False,LEFT,LEFT,988,987
260,450,250,450,210,280,UP,LEFT,220,210,18,False,True,True,True,False,False,LEFT,LEFT,987,986
260,450,250,450,210,280,UP,LEFT,220,210,18,False,True,True,True,False,False,LEFT,LEFT,987,986
250,450,240,450,210,280,UP,LEFT,210,200,18,False,True,True,True,False,False,LEFT,LEFT,986,985
250,450,240,450,210,280,UP,LEFT,210,200,18,False,True,True,True,False,False,LEFT,LEFT,986,985
240,450,230,450,210,280,UP,LEFT,200,190,18,False,True,True,True,False,False,LEFT,LEFT,985,984
240,450,230,450,210,280,UP,LEFT,200,190,18,False,True,True,True,False,False,LEFT,LEFT,985,984
230,450,220,450,210,280,UP,LEFT,190,180,18,False,True,True,True,False,False,LEFT,LEFT,984,983
230,450,220,450,210,280,UP,LEFT,190,180,18,False,True,True,True,False,False,LEFT,LEFT,984,983
220,450,210,450,210,280,UP,LEFT,180,170,18,False,True,True,True,False,False,LEFT,LEFT,983,982
220,450,210,450,210,280,UP,LEFT,180,170,18,False,True,True,True,False,False,LEFT,LEFT,983,982
210,450,200,450,210,280,UP,EQUAL,170,180,18,False,True,True,True,False,False,LEFT,LEFT,982,981
210,450,200,450,210,280,UP,EQUAL,170,180,18,False,True,True,True,False,False,LEFT,LEFT,982,981
200,450,200,440,210,280,UP,RIGHT,180,170,18,False,True,True,True,False,False,LEFT,UP,981,980
200,450,200,440,210,280,UP,RIGHT,180,170,18,False,True,True,True,False,False,UP,UP,981,980
200,440,200,430,210,280,UP,RIGHT,170,160,18,True,True,True,False,False,False,UP,UP,980,979
200,440,200,430,210,280,UP,RIGHT,170,160,18,True,True,True,False,False,False,UP,UP,980,979
200,430,200,420,210,280,UP,RIGHT,160,150,18,True,True,True,False,False,False,UP,UP,979,978
200,430,200,420,210,280,UP,RIGHT,160,150,18,True,True,True,False,False,False,UP,UP,979,978
200,420,200,410,210,280,UP,RIGHT,150,140,18,True,True,True,False,False,False,UP,UP,978,977
200,420,200,410,210,280,UP,RIGHT,150,140,18,True,True,True,False,False,False,UP,UP,978,977
200,410,200,400,210,280,UP,RIGHT,140,130,18,True,True,True,False,False,False,UP,UP,977,976
200,410,200,400,210,280,UP,RIGHT,140,130,18,True,True,True,False,False,False,UP,UP,977,976
200,400,200,390,210,280,UP,RIGHT,130,120,18,True,True,True,False,False,False,UP,UP,976,975
200,400,200,390,210,280,UP,RIGHT,130,120,18,True,True,True,False,False,False,UP,UP,976,975
200,390,200,380,210,280,UP,RIGHT,120,110,18,True,True,True,False,False,False,UP,UP,975,974
200,390,200,380,210,280,UP,RIGHT,120,110,18,True,True,True,False,False,False,UP,UP,975,974
200,380,200,370,210,280,UP,RIGHT,110,100,18,True,True,True,False,False,False,UP,UP,974,973
200,380,200,370,210,280,UP,RIGHT,110,100,18,True,True,True,False,False,False,UP,UP,974,973
200,370,210,370,210,280,UP,RIGHT,100,90,18,True,True,True,False,False,False,UP,RIGHT,973,972
200,370,210,370,210,280,UP,RIGHT,100,90,18,True,True,True,False,True,False,RIGHT,RIGHT,973,972
210,370,220,370,210,280,UP,EQUAL,90,100,18,True,False,True,True,True,False,RIGHT,RIGHT,972,971
210,370,220,370,210,280,UP,EQUAL,90,100,18,True,False,True,True,True,False,RIGHT,RIGHT,972,971
220,370,230,370,210,280,UP,LEFT,100,110,18,True,False,True,True,True,False,RIGHT,RIGHT,971,970
220,370,230,370,210,280,UP,LEFT,100,110,18,True,False,True,True,True,False,RIGHT,RIGHT,971,970
230,370,240,370,210,280,UP,LEFT,110,120,18,True,False,True,True,True,False,RIGHT,RIGHT,970,969
230,370,240,370,210,280,UP,LEFT,110,120,18,True,False,True,True,True,False,RIGHT,RIGHT,970,969
240,370,250,370,210,280,UP,LEFT,120,130,18,True,False,True,True,True,False,RIGHT,RIGHT,969,968
240,370,250,370,210,280,UP,LEFT,120,130,18,True,False,True,True,True,False,RIGHT,RIGHT,969,968
250,370,260,370,210,280,UP,LEFT,130,140,18,True,False,True,True,True,False,RIGHT,RIGHT,968,967
250,370,260,370,210,280,UP,LEFT,130,140,18,True,False,True,True,True,False,RIGHT,RIGHT,968,967
260,370,270,370,210,280,UP,LEFT,140,150,18,True,False,True,True,True,False,RIGHT,RIGHT,967,966
260,370,270,370,210,280,UP,LEFT,140,150,18,True,False,True,True,True,False,RIGHT,RIGHT,967,966
270,370,280,370,210,280,UP,LEFT,150,160,18,True,False,True,True,True,False,RIGHT,RIGHT,966,965
270,370,280,370,210,280,UP,LEFT,150,160,18,True,False,True,True,True,False,RIGHT,RIGHT,966,965
280,370,280,360,210,280,UP,LEFT,160,150,18,True,False,True,True,True,False,RIGHT,UP,965,964
280,370,280,360,210,280,UP,LEFT,160,150,18,True,False,True,True,False,False,UP,UP,965,964
280,360,280,350,210,280,UP,LEFT,150,140,18,True,True,True,False,False,False,UP,UP,964,963
280,360,280,350,210,280,UP,LEFT,150,140,18,True,True,True,False,False,False,UP,UP,964,963
280,350,280,340,210,280,UP,LEFT,140,130,18,True,True,True,False,False,False,UP,UP,963,962
280,350,280,340,210,280,UP,LEFT,140,130,18,True,True,True,False,False,False,UP,UP,963,962
280,340,280,330,210,280,UP,LEFT,130,120,18,True,True,True,False,False,False,UP,UP,962,961
280,340,280,330,210,280,UP,LEFT,130,120,18,True,True,True,False,False,False,UP,UP,962,961
280,330,280,320,210,280,UP,LEFT,120,110,18,True,True,True,False,False,False,UP,UP,961,960
280,330,280,320,210,280,UP,LEFT,120,110,18,True,True,True,False,False,False,UP,UP,961,960
280,320,280,310,210,280,UP,LEFT,110,100,18,True,True,True,False,False,False,UP,UP,960,959
280,320,280,310,210,280,UP,LEFT,110,100,18,True,True,True,False,False,False,UP,UP,960,959
280,310,280,300,210,280,UP,LEFT,100,90,18,True,True,True,False,False,False,UP,UP,959,958
280,310,280,300,210,280,UP,LEFT,100,90,18,True,True,True,False,False,False,UP,UP,959,958
280,300,280,290,210,280,UP,LEFT,90,80,18,True,True,True,False,False,False,UP,UP,958,957
280,300,280,290,210,280,UP,LEFT,90,80,18,True,True,True,False,False,False,UP,UP,958,957
280,290,270,290,210,280,UP,LEFT,80,70,18,True,True,True,False,False,False,UP,LEFT,957,956
280,290,270,290,210,280,UP,LEFT,80,70,18,True,True,True,False,False,False,LEFT,LEFT,957,956
270,290,260,290,210,280,UP,LEFT,70,60,18,False,True,True,True,False,False,LEFT,LEFT,956,955
270,290,260,290,210,280,UP,LEFT,70,60,18,False,True,True,True,False,False,LEFT,LEFT,956,955
260,290,250,290,210,280,UP,LEFT,60,50,18,False,True,True,True,False,False,LEFT,LEFT,955,954
260,290,250,290,210,280,UP,LEFT,60,50,18,False,True,True,True,False,False,LEFT,LEFT,955,954
250,290,240,290,210,280,UP,LEFT,50,40,18,False,True,True,True,False,False,LEFT,LEFT,954,953
250,290,240,290,210,280,UP,LEFT,50,40,18,False,True,True,True,False,False,LEFT,LEFT,954,953
240,290,230,290,210,280,UP,LEFT,40,30,18,False,True,True,True,False,False,LEFT,LEFT,953,952
240,290,230,290,210,280,UP,LEFT,40,30,18,False,True,True,True,False,False,LEFT,LEFT,953,952
230,290,220,290,210,280,UP,LEFT,30,20,18,False,True,True,True,False,False,LEFT,LEFT,952,951
230,290,220,290,210,280,UP,LEFT,30,20,18,False,True,True,True,False,False,LEFT,LEFT,952,951
220,290,210,290,210,280,UP,LEFT,20,10,18,False,True,True,True,False,False,LEFT,LEFT,951,950
220,290,210,290,210,280,UP,LEFT,20,10,18,False,True,True,True,False,False,LEFT,LEFT,951,950
210,290,210,280,210,280,UP,EQUAL,10,0,18,False,True,True,True,False,False,LEFT,UP,950,1050
210,290,210,280,210,280,UP,EQUAL,10,0,18,False,True,True,True,False,False,UP,UP,950,1050
210,280,210,270,300,160,EQUAL,EQUAL,210,200,19,True,True,True,False,False,False,UP,UP,1050,1049
210,280,210,270,300,160,EQUAL,EQUAL,210,200,19,True,True,True,False,False,False,UP,UP,1050,1049
210,270,210,260,300,160,UP,RIGHT,200,190,19,True,True,True,False,False,False,UP,UP,1049,1048
210,270,210,260,300,160,UP,RIGHT,200,190,19,True,True,True,False,False,False,UP,UP,1049,1048
210,260,210,250,300,160,UP,RIGHT,190,180,19,True,True,True,False,False,False,UP,UP,1048,1047
210,260,210,250,300,160,UP,RIGHT,190,180,19,True,True,True,False,False,False,UP,UP,1048,1047
210,250,210,240,300,160,UP,RIGHT,180,170,19,True,True,True,False,False,False,UP,UP,1047,1046
210,250,210,240,300,160,UP,RIGHT,180,170,19,True,True,True,False,False,False,UP,UP,1047,1046
210,240,210,230,300,160,UP,RIGHT,170,160,19,True,True,True,False,False,False,UP,UP,1046,1045
210,240,210,230,300,160,UP,RIGHT,170,160,19,True,True,True,False,False,False,UP,UP,1046,1045
210,230,210,220,300,160,UP,RIGHT,160,150,19,True,True,True,False,False,False,UP,UP,1045,1044
210,230,210,220,300,160,UP,RIGHT,160,150,19,True,True,True,False,False,False,UP,UP,1045,1044
210,220,210,210,300,160,UP,RIGHT,150,140,19,True,True,True,False,False,False,UP,UP,1044,1043
210,220,210,210,300,160,UP,RIGHT,150,140,19,True,True,True,False,False,False,UP,UP,1044,1043
210,210,210,200,300,160,UP,RIGHT,140,130,19,True,True,True,False,False,False,UP,UP,1043,1042
210,210,210,200,300,160,UP,RIGHT,140,130,19,True,True,True,False,False,False,UP,UP,1043,1042
210,200,210,190,300,160,UP,RIGHT,130,120,19,True,True,True,False,False,False,UP,UP,1042,1041
210,200,210,190,300,160,UP,RIGHT,130,120,19,True,True,True,False,False,False,UP,UP,1042,1041
210,190,210,180,300,160,UP,RIGHT,120,110,19,True,True,True,False,False,False,UP,UP,1041,1040
210,190,210,180,300,160,UP,RIGHT,120,110,19,True,True,True,False,False,False,UP,UP,1041,1040
210,180,210,170,300,160,UP,RIGHT,110,100,19,True,True,True,False,False,False,UP,UP,1040,1039
210,180,210,170,300,160,UP,RIGHT,110,100,19,True,True,True,False,False,False,UP,UP,1040,1039
210,170,210,160,300,160,UP,RIGHT,100,90,19,True,True,True,False,False,False,UP,UP,1039,1038
210,170,210,160,300,160,UP,RIGHT,100,90,19,True,True,True,False,False,False,UP,UP,1039,1038
210,160,220,160,300,160,EQUAL,RIGHT,90,80,19,True,True,True,False,False,False,UP,RIGHT,1038,1037
210,160,220,160,300,160,EQUAL,RIGHT,90,80,19,True,True,True,False,False,False,RIGHT,RIGHT,1038,1037
220,160,230,160,300,160,EQUAL,RIGHT,80,70,19,True,False,True,True,False,False,RIGHT,RIGHT,1037,1036
220,160,230,160,300,160,EQUAL,RIGHT,80,70,19,True,False,True,True,False,False,RIGHT,RIGHT,1037,1036
230,160,240,160,300,160,EQUAL,RIGHT,70,60,19,True,False,True,True,False,False,RIGHT,RIGHT,1036,1035
230,160,240,160,300,160,EQUAL,RIGHT,70,60,19,True,False,True,True,False,False,RIGHT,RIGHT,1036,1035
240,160,250,160,300,160,EQUAL,RIGHT,60,50,19,True,False,True,True,False,False,RIGHT,RIGHT,1035,1034
240,160,250,160,300,160,EQUAL,RIGHT,60,50,19,True,False,True,True,False,False,RIGHT,RIGHT,1035,1034
250,160,260,160,300,160,EQUAL,RIGHT,50,40,19,True,False,True,True,False,False,RIGHT,RIGHT,1034,1033
250,160,260,160,300,160,EQUAL,RIGHT,50,40,19,True,False,True,True,False,False,RIGHT,RIGHT,1034,1033
260,160,270,160,300,160,EQUAL,RIGHT,40,30,19,True,False,True,True,False,False,RIGHT,RIGHT,1033,1032
260,160,270,160,300,160,EQUAL,RIGHT,40,30,19,True,False,True,True,False,False,RIGHT,RIGHT,1033,1032
270,160,280,160,300,160,EQUAL,RIGHT,30,20,19,True,False,True,True,False,False,RIGHT,RIGHT,1032,1031
270,160,280,160,300,160,EQUAL,RIGHT,30,20,19,True,False,True,True,False,False,RIGHT,RIGHT,1032,1031
280,160,290,160,300,160,EQUAL,RIGHT,20,10,19,True,False,True,True,False,False,RIGHT,RIGHT,1031,1030
280,160,290,160,300,160,EQUAL,RIGHT,20,10,19,True,False,True,True,False,False,RIGHT,RIGHT,1031,1030
290,160,300,160,300,160,EQUAL,RIGHT,10,0,19,True,False,True,True,False,False,RIGHT,RIGHT,1030,1130
290,160,300,160,300,160,EQUAL,RIGHT,10,0,19,True,False,True,True,False,False,RIGHT,RIGHT,1030,1130
300,160,310,160,420,260,EQUAL,EQUAL,220,210,20,True,False,True,True,False,False,RIGHT,RIGHT,1130,1129
300,160,310,160,420,260,EQUAL,EQUAL,220,210,20,True,False,True,True,False,False,RIGHT,RIGHT,1130,1129
310,160,320,160,420,260,DOWN,RIGHT,210,200,20,True,False,True,True,False,False,RIGHT,RIGHT,1129,1128
310,160,320,160,420,260,DOWN,RIGHT,210,200,20,True,False,True,True,False,False,RIGHT,RIGHT,1129,1128
320,160,330,160,420,260,DOWN,RIGHT,200,190,20,True,False,True,True,False,False,RIGHT,RIGHT,1128,1127
320,160,330,160,420,260,DOWN,RIGHT,200,190,20,True,False,True,True,False,False,RIGHT,RIGHT,1128,1127
330,160,340,160,420,260,DOWN,RIGHT,190,180,20,True,False,True,True,False,False,RIGHT,RIGHT,1127,1126
330,160,340,160,420,260,DOWN,RIGHT,190,180,20,True,False,True,True,False,False,RIGHT,RIGHT,1127,1126
340,160,350,160,420,260,DOWN,RIGHT,180,170,20,True,False,True,True,False,False,RIGHT,RIGHT,1126,1125
340,160,350,160,420,260,DOWN,RIGHT,180,170,20,True,False,True,True,False,False,RIGHT,RIGHT,1126,1125
350,160,360,160,420,260,DOWN,RIGHT,170,160,20,True,False,True,True,False,False,RIGHT,RIGHT,1125,1124
350,160,360,160,420,260,DOWN,RIGHT,170,160,20,True,False,True,True,False,False,RIGHT,RIGHT,1125,1124
360,160,370,160,420,260,DOWN,RIGHT,160,150,20,True,False,True,True,False,False,RIGHT,RIGHT,1124,1123
360,160,370,160,420,260,DOWN,RIGHT,160,150,20,True,False,True,True,False,False,RIGHT,RIGHT,1124,1123
370,160,380,160,420,260,DOWN,RIGHT,150,140,20,True,False,True,True,False,False,RIGHT,RIGHT,1123,1122
370,160,380,160,420,260,DOWN,RIGHT,150,140,20,True,False,True,True,False,False,RIGHT,RIGHT,1123,1122
380,160,390,160,420,260,DOWN,RIGHT,140,130,20,True,False,True,True,False,False,RIGHT,RIGHT,1122,1121
380,160,390,160,420,260,DOWN,RIGHT,140,130,20,True,False,True,True,False,False,RIGHT,RIGHT,1122,1121
390,160,400,160,420,260,DOWN,RIGHT,130,120,20,True,False,True,True,False,False,RIGHT,RIGHT,1121,1120
390,160,400,160,420,260,DOWN,RIGHT,130,120,20,True,False,True,True,False,False,RIGHT,RIGHT,1121,1120
400,160,410,160,420,260,DOWN,RIGHT,120,110,20,True,False,True,True,False,False,RIGHT,RIGHT,1120,1119
400,160,410,160,420,260,DOWN,RIGHT,120,110,20,True,False,True,True,False,False,RIGHT,RIGHT,1120,1119
410,160,420,160,420,260,DOWN,RIGHT,110,100,20,True,False,True,True,False,False,RIGHT,RIGHT,1119,1118
410,160,420,160,420,260,DOWN,RIGHT,110,100,20,True,False,True,True,False,False,RIGHT,RIGHT,1119,1118
420,160,430,160,420,260,DOWN,EQUAL,100,110,20,True,False,True,True,False,False,RIGHT,RIGHT,1118,1117
420,160,430,160,420,260,DOWN,EQUAL,100,110,20,True,False,True,True,False,False,RIGHT,RIGHT,1118,1117
430,160,430,170,420,260,DOWN,LEFT,110,100,20,True,False,True,True,False,False,RIGHT,DOWN,1117,1116
430,160,430,170,420,260,DOWN,LEFT,110,100,20,True,False,True,True,True,False,DOWN,DOWN,1117,1116
430,170,430,180,420,260,DOWN,LEFT,100,90,20,True,True,False,True,True,False,DOWN,DOWN,1116,1115
430,170,430,180,420,260,DOWN,LEFT,100,90,20,True,True,False,True,True,False,DOWN,DOWN,1116,1115
430,180,430,190,420,260,DOWN,LEFT,90,80,20,True,True,False,True,True,False,DOWN,DOWN,1115,1114
430,180,430,190,420,260,DOWN,LEFT,90,80,20,True,True,False,True,True,False,DOWN,DOWN,1115,1114
430,190,430,200,420,260,DOWN,LEFT,80,70,20,True,True,False,True,True,False,DOWN,DOWN,1114,1113
430,190,430,200,420,260,DOWN,LEFT,80,70,20,True,True,False,True,True,False,DOWN,DOWN,1114,1113
430,200,430,210,420,260,DOWN,LEFT,70,60,20,True,True,False,True,True,False,DOWN,DOWN,1113,1112
430,200,430,210,420,260,DOWN,LEFT,70,60,20,True,True,False,True,True,False,DOWN,DOWN,1113,1112
430,210,430,220,420,260,DOWN,LEFT,60,50,20,True,True,False,True,True,False,DOWN,DOWN,1112,1111
430,210,430,220,420,260,DOWN,LEFT,60,50,20,True,True,False,True,True,False,DOWN,DOWN,1112,1111
430,220,420,220,420,260,DOWN,LEFT,50,40,20,True,True,False,True,True,False,DOWN,LEFT,1111,1110
430,220,420,220,420,260,DOWN,LEFT,50,40,20,True,True,False,True,True,False,LEFT,LEFT,1111,1110
420,220,410,220,420,260,DOWN,EQUAL,40,50,20,False,True,True,True,True,False,LEFT,LEFT,1110,1109
420,220,410,220,420,260,DOWN,EQUAL,40,50,20,False,True,True,True,True,False,LEFT,LEFT,1110,1109
410,220,410,230,420,260,DOWN,RIGHT,50,40,20,False,True,True,True,True,False,LEFT,DOWN,1109,1108
410,220,410,230,420,260,DOWN,RIGHT,50,40,20,False,True,True,True,False,False,DOWN,DOWN,1109,1108
410,230,410,240,420,260,DOWN,RIGHT,40,30,20,True,True,False,True,False,False,DOWN,DOWN,1108,1107
410,230,410,240,420,260,DOWN,RIGHT,40,30,20,True,True,False,True,False,False,DOWN,DOWN,1108,1107
410,240,410,250,420,260,DOWN,RIGHT,30,20,20,True,True,False,True,False,False,DOWN,DOWN,1107,1106
410,240,410,250,420,260,DOWN,RIGHT,30,20,20,True,True,False,True,False,False,DOWN,DOWN,1107,1106
410,250,410,260,420,260,DOWN,RIGHT,20,10,20,True,True,False,True,False,False,DOWN,DOWN,1106,1105
410,250,410,260,420,260,DOWN,RIGHT,20,10,20,True,True,False,True,False,False,DOWN,DOWN,1106,1105
410,260,410,270,420,260,EQUAL,RIGHT,10,20,20,True,True,False,True,False,False,DOWN,DOWN,1105,1104
410,260,410,270,420,260,EQUAL,RIGHT,10,20,20,True,True,False,True,False,False,DOWN,DOWN,1105,1104
410,270,410,280,420,260,UP,RIGHT,20,30,20,True,True,False,True,False,False,DOWN,DOWN,1104,1103
410,270,410,280,420,260,UP,RIGHT,20,30,20,True,True,False,True,False,False,DOWN,DOWN,1104,1103
410,280,410,290,420,260,UP,RIGHT,30,40,20,True,True,False,True,False,False,DOWN,DOWN,1103,1102
410,280,410,290,420,260,UP,RIGHT,30,40,20,True,True,False,True,False,False,DOWN,DOWN,1103,1102
410,290,410,300,420,260,UP,RIGHT,40,50,20,True,True,False,True,False,False,DOWN,DOWN,1102,1101
410,290,410,300,420,260,UP,RIGHT,40,50,20,True,True,False,True,False,False,DOWN,DOWN,1102,1101
410,300,410,310,420,260,UP,RIGHT,50,60,20,True,True,False,True,False,False,DOWN,DOWN,1101,1100
410,300,410,310,420,260,UP,RIGHT,50,60,20,True,True,False,True,False,False,DOWN,DOWN,1101,1100
410,310,410,320,420,260,UP,RIGHT,60,70,20,True,True,False,True,False,False,DOWN,DOWN,1100,1099
410,310,410,320,420,260,UP,RIGHT,60,70,20,True,True,False,True,False,False,DOWN,DOWN,1100,1099
410,320,420,320,420,260,UP,RIGHT,70,60,20,True,True,False,True,False,False,DOWN,RIGHT,1099,1098
410,320,420,320,420,260,UP,RIGHT,70,60,20,True,True,False,True,False,False,RIGHT,RIGHT,1099,1098
420,320,420,310,420,260,UP,EQUAL,60,50,20,True,False,True,True,False,True,RIGHT,UP,1098,1097
420,320,420,310,420,260,UP,EQUAL,60,50,20,True,False,True,True,True,True,UP,UP,1098,1097
420,310,420,300,420,260,UP,EQUAL,50,40,20,True,False,True,False,True,True,UP,UP,1097,1096
420,310,420,300,420,260,UP,EQUAL,50,40,20,True,False,True,False,True,True,UP,UP,1097,1096
420,300,420,290,420,260,UP,EQUAL,40,30,20,True,False,True,False,True,True,UP,UP,1096,1095
420,300,420,290,420,260,UP,EQUAL,40,30,20,True,False,True,False,True,True,UP,UP,1096,1095
420,290,420,280,420,260,UP,EQUAL,30,20,20,True,False,True,False,True,True,UP,UP,1095,1094
420,290,420,280,420,260,UP,EQUAL,30,20,20,True,False,True,False,True,True,UP,UP,1095,1094
420,280,420,270,420,260,UP,EQUAL,20,10,20,True,False,True,False,True,True,UP,UP,1094,1093
420,280,420,270,420,260,UP,EQUAL,20,10,20,True,False,True,False,True,True,UP,UP,1094,1093
420,270,420,260,420,260,UP,EQUAL,10,0,20,True,False,True,False,True,True,UP,UP,1093,1193
420,270,420,260,420,260,UP,EQUAL,10,0,20,True,False,True,False,True,True,UP,UP,1093,1193
420,260,420,250,410,360,EQUAL,EQUAL,110,120,21,True,False,True,False,True,True,UP,UP,1193,1192
420,260,420,250,410,360,EQUAL,EQUAL,110,120,21,True,False,True,False,True,True,UP,UP,1193,1192
420,250,430,250,410,360,DOWN,LEFT,120,130,21,True,False,True,False,True,False,UP,RIGHT,1192,1191
420,250,430,250,410,360,DOWN,LEFT,120,130,21,True,False,True,False,False,False,RIGHT,RIGHT,1192,1191
430,250,430,240,410,360,DOWN,LEFT,130,140,21,True,False,True,True,False,False,RIGHT,UP,1191,1190
430,250,430,240,410,360,DOWN,LEFT,130,140,21,True,False,True,True,False,False,UP,UP,1191,1190
430,240,430,230,410,360,DOWN,LEFT,140,150,21,True,True,True,False,False,False,UP,UP,1190,1189
430,240,430,230,410,360,DOWN,LEFT,140,150,21,True,True,True,False,False,False,UP,UP,1190,1189
430,230,430,220,410,360,DOWN,LEFT,150,160,21,True,True,True,False,False,False,UP,UP,1189,1188
430,230,430,220,410,360,DOWN,LEFT,150,160,21,True,True,True,False,False,False,UP,UP,1189,1188
430,220,430,210,410,360,DOWN,LEFT,160,170,21,True,True,True,False,False,False,UP,UP,1188,1187
430,220,430,210,410,360,DOWN,LEFT,160,170,21,True,True,True,False,False,False,UP,UP,1188,1187
430,210,430,200,410,360,DOWN,LEFT,170,180,21,True,True,True,False,False,False,UP,UP,1187,1186
430,210,430,200,410,360,DOWN,LEFT,170,180,21,True,True,True,False,False,False,UP,UP,1187,1186
430,200,430,190,410,360,DOWN,LEFT,180,190,21,True,True,True,False,False,False,UP,UP,1186,1185
430,200,430,190,410,360,DOWN,LEFT,180,190,21,True,True,True,False,False,False,UP,UP,1186,1185
430,190,420,190,410,360,DOWN,LEFT,190,180,21,True,True,True,False,False,False,UP,LEFT,1185,1184
430,190,420,190,410,360,DOWN,LEFT,190,180,21,True,True,True,False,False,False,LEFT,LEFT,1185,1184
420,190,410,190,410,360,DOWN,LEFT,180,170,21,False,True,True,True,False,False,LEFT,LEFT,1184,1183
420,190,410,190,410,360,DOWN,LEFT,180,170,21,False,True,True,True,False,False,LEFT,LEFT,1184,1183
410,190,400,190,410,360,DOWN,EQUAL,170,180,21,False,True,True,True,False,False,LEFT,LEFT,1183,1182
410,190,400,190,410,360,DOWN,EQUAL,170,180,21,False,True,True,True,False,False,LEFT,LEFT,1183,1182
400,190,400,200,410,360,DOWN,RIGHT,180,170,21,False,True,True,True,False,False,LEFT,DOWN,1182,1181
400,190,400,200,410,360,DOWN,RIGHT,180,170,21,False,True,True,True,True,False,DOWN,DOWN,1182,1181
400,200,400,210,410,360,DOWN,RIGHT,170,160,21,True,True,False,True,True,False,DOWN,DOWN,1181,1180
400,200,400,210,410,360,DOWN,RIGHT,170,160,21,True,True,False,True,True,False,DOWN,DOWN,1181,1180
400,210,400,220,410,360,DOWN,RIGHT,160,150,21,True,True,False,True,True,False,DOWN,DOWN,1180,1179
400,210,400,220,410,360,DOWN,RIGHT,160,150,21,True,True,False,True,True,False,DOWN,DOWN,1180,1179
400,220,400,230,410,360,DOWN,RIGHT,150,140,21,True,True,False,True,True,False,DOWN,DOWN,1179,1178
400,220,400,230,410,360,DOWN,RIGHT,150,140,21,True,True,False,True,True,False,DOWN,DOWN,1179,1178
400,230,400,240,410,360,DOWN,RIGHT,140,130,21,True,True,False,True,True,False,DOWN,DOWN,1178,1177
400,230,400,240,410,360,DOWN,RIGHT,140,130,21,True,True,False,True,True,False,DOWN,DOWN,1178,1177
400,240,400,250,410,360,DOWN,RIGHT,130,120,21,True,True,False,True,True,False,DOWN,DOWN,1177,1176
400,240,400,250,410,360,DOWN,RIGHT,130,120,21,True,True,False,True,True,False,DOWN,DOWN,1177,1176
400,250,400,260,410,360,DOWN,RIGHT,120,110,21,True,True,False,True,True,False,DOWN,DOWN,1176,1175
400,250,400,260,410,360,DOWN,RIGHT,120,110,21,True,True,False,True,True,False,DOWN,DOWN,1176,1175
400,260,400,270,410,360,DOWN,RIGHT,110,100,21,True,True,False,True,True,False,DOWN,DOWN,1175,1174
400,260,400,270,410,360,DOWN,RIGHT,110,100,21,True,True,False,True,True,False,DOWN,DOWN,1175,1174
400,270,400,280,410,360,DOWN,RIGHT,100,90,21,True,True,False,True,True,False,DOWN,DOWN,1174,1173
400,270,400,280,410,360,DOWN,RIGHT,100,90,21,True,True,False,True,True,False,DOWN,DOWN,1174,1173
400,280,400,290,410,360,DOWN,RIGHT,90,80,21,True,True,False,True,True,False,DOWN,DOWN,1173,1172
400,280,400,290,410,360,DOWN,RIGHT,90,80,21,True,True,False,True,True,False,DOWN,DOWN,1173,1172
400,290,400,300,410,360,DOWN,RIGHT,80,70,21,True,True,False,True,True,False,DOWN,DOWN,1172,1171
400,290,400,300,410,360,DOWN,RIGHT,80,70,21,True,True,False,True,True,False,DOWN,DOWN,1172,1171
400,300,400,310,410,360,DOWN,RIGHT,70,60,21,True,True,False,True,True,False,DOWN,DOWN,1171,1170
400,300,400,310,410,360,DOWN,RIGHT,70,60,21,True,True,False,True,True,False,DOWN,DOWN,1171,1170
400,310,410,310,410,360,DOWN,RIGHT,60,50,21,True,True,False,True,True,False,DOWN,RIGHT,1170,1169
400,310,410,310,410,360,DOWN,RIGHT,60,50,21,True,True,False,True,True,False,RIGHT,RIGHT,1170,1169
410,310,410,320,410,360,DOWN,EQUAL,50,40,21,True,False,True,True,True,False,RIGHT,DOWN,1169,1168
410,310,410,320,410,360,DOWN,EQUAL,50,40,21,True,False,True,True,False,False,DOWN,DOWN,1169,1168
410,320,410,330,410,360,DOWN,EQUAL,40,30,21,True,True,False,True,False,False,DOWN,DOWN,1168,1167
410,320,410,330,410,360,DOWN,EQUAL,40,30,21,True,True,False,True,False,False,DOWN,DOWN,1168,1167
410,330,410,340,410,360,DOWN,EQUAL,30,20,21,True,True,False,True,False,False,DOWN,DOWN,1167,1166
410,330,410,340,410,360,DOWN,EQUAL,30,20,21,True,True,False,True,False,False,DOWN,DOWN,1167,1166
410,340,410,350,410,360,DOWN,EQUAL,20,10,21,True,True,False,True,False,False,DOWN,DOWN,1166,1165
410,340,410,350,410,360,DOWN,EQUAL,20,10,21,True,True,False,True,False,False,DOWN,DOWN,1166,1165
410,350,410,360,410,360,DOWN,EQUAL,10,0,21,True,True,False,True,False,False,DOWN,DOWN,1165,1265
410,350,410,360,410,360,DOWN,EQUAL,10,0,21,True,True,False,True,False,False,DOWN,DOWN,1165,1265
410,360,410,370,420,410,EQUAL,EQUAL,60,50,22,True,True,False,True,False,False,DOWN,DOWN,1265,1264
410,360,410,370,420,410,EQUAL,EQUAL,60,50,22,True,True,False,True,False,False,DOWN,DOWN,1265,1264
410,370,410,380,420,410,DOWN,RIGHT,50,40,22,True,True,False,True,False,False,DOWN,DOWN,1264,1263
410,370,410,380,420,410,DOWN,RIGHT,50,40,22,True,True,False,True,False,False,DOWN,DOWN,1264,1263
410,380,410,390,420,410,DOWN,RIGHT,40,30,22,True,True,False,True,False,False,DOWN,DOWN,1263,1262
410,380,410,390,420,410,DOWN,RIGHT,40,30,22,True,True,False,True,False,False,DOWN,DOWN,1263,1262
410,390,400,390,420,410,DOWN,RIGHT,30,40,22,True,True,False,True,False,False,DOWN,LEFT,1262,1261
410,390,400,390,420,410,DOWN,RIGHT,30,40,22,True,True,False,True,False,False,LEFT,LEFT,1262,1261
400,390,390,390,420,410,DOWN,RIGHT,40,50,22,False,True,True,True,False,False,LEFT,LEFT,1261,1260
400,390,390,390,420,410,DOWN,RIGHT,40,50,22,False,True,True,True,False,False,LEFT,LEFT,1261,1260
390,390,380,390,420,410,DOWN,RIGHT,50,60,22,False,True,True,True,False,False,LEFT,LEFT,1260,1259
390,390,380,390,420,410,DOWN,RIGHT,50,60,22,False,True,True,True,False,False,LEFT,LEFT,1260,1259
380,390,370,390,420,410,DOWN,RIGHT,60,70,22,False,True,True,True,False,False,LEFT,LEFT,1259,1258
380,390,370,390,420,410,DOWN,RIGHT,60,70,22,False,True,True,True,False,False,LEFT,LEFT,1259,1258
370,390,360,390,420,410,DOWN,RIGHT,70,80,22,False,True,True,True,False,False,LEFT,LEFT,1258,1257
370,390,360,390,420,410,DOWN,RIGHT,70,80,22,False,True,True,True,False,False,LEFT,LEFT,1258,1257
360,390,360,400,420,410,DOWN,RIGHT,80,70,22,False,True,True,True,False,False,LEFT,DOWN,1257,1256
360,390,360,400,420,410,DOWN,RIGHT,80,70,22,False,True,True,True,False,False,DOWN,DOWN,1257,1256
360,400,360,410,420,410,DOWN,RIGHT,70,60,22,True,True,False,True,False,False,DOWN,DOWN,1256,1255
360,400,360,410,420,410,DOWN,RIGHT,70,60,22,True,True,False,True,False,False,DOWN,DOWN,1256,1255
360,410,360,420,420,410,EQUAL,RIGHT,60,70,22,True,True,False,True,False,False,DOWN,DOWN,1255,1254
360,410,360,420,420,410,EQUAL,RIGHT,60,70,22,True,True,False,True,False,False,DOWN,DOWN,1255,1254
360,420,370,420,420,410,UP,RIGHT,70,60,22,True,True,False,True,False,False,DOWN,RIGHT,1254,1253
360,420,370,420,420,410,UP,RIGHT,70,60,22,True,True,False,True,False,False,RIGHT,RIGHT,1254,1253
370,420,380,420,420,410,UP,RIGHT,60,50,22,True,False,True,True,False,False,RIGHT,RIGHT,1253,1252
370,420,380,420,420,410,UP,RIGHT,60,50,22,True,False,True,True,False,False,RIGHT,RIGHT,1253,1252
380,420,390,420,420,410,UP,RIGHT,50,40,22,True,False,True,True,False,False,RIGHT,RIGHT,1252,1251
380,420,390,420,420,410,UP,RIGHT,50,40,22,True,False,True,True,False,False,RIGHT,RIGHT,1252,1251
390,420,400,420,420,410,UP,RIGHT,40,30,22,True,False,True,True,False,False,RIGHT,RIGHT,1251,1250
390,420,400,420,420,410,UP,RIGHT,40,30,22,True,False,True,True,False,False,RIGHT,RIGHT,1251,1250
400,420,410,420,420,410,UP,RIGHT,30,20,22,True,False,True,True,False,False,RIGHT,RIGHT,1250,1249
400,420,410,420,420,410,UP,RIGHT,30,20,22,True,False,True,True,False,False,RIGHT,RIGHT,1250,1249
410,420,420,420,420,410,UP,RIGHT,20,10,22,True,False,True,True,False,False,RIGHT,RIGHT,1249,1248
410,420,420,420,420,410,UP,RIGHT,20,10,22,True,False,True,True,False,False,RIGHT,RIGHT,1249,1248
420,420,430,420,420,410,UP,EQUAL,10,20,22,True,False,True,True,False,False,RIGHT,RIGHT,1248,1247
420,420,430,420,420,410,UP,EQUAL,10,20,22,True,False,True,True,False,False,RIGHT,RIGHT,1248,1247
430,420,430,410,420,410,UP,LEFT,20,10,22,True,False,True,True,False,False,RIGHT,UP,1247,1246
430,420,430,410,420,410,UP,LEFT,20,10,22,True,False,True,True,True,False,UP,UP,1247,1246
430,410,430,400,420,410,EQUAL,LEFT,10,20,22,True,True,True,False,True,False,UP,UP,1246,1245
430,410,430,400,420,410,EQUAL,LEFT,10,20,22,True,True,True,False,True,False,UP,UP,1246,1245
430,400,430,390,420,410,DOWN,LEFT,20,30,22,True,True,True,False,True,False,UP,UP,1245,1244
430,400,430,390,420,410,DOWN,LEFT,20,30,22,True,True,True,False,True,False,UP,UP,1245,1244
430,390,430,380,420,410,DOWN,LEFT,30,40,22,True,True,True,False,True,False,UP,UP,1244,1243
430,390,430,380,420,410,DOWN,LEFT,30,40,22,True,True,True,False,True,False,UP,UP,1244,1243
430,380,430,370,420,410,DOWN,LEFT,40,50,22,True,True,True,False,True,False,UP,UP,1243,1242
430,380,430,370,420,410,DOWN,LEFT,40,50,22,True,True,True,False,True,False,UP,UP,1243,1242
430,370,430,360,420,410,DOWN,LEFT,50,60,22,True,True,True,False,True,False,UP,UP,1242,1241
430,370,430,360,420,410,DOWN,LEFT,50,60,22,True,True,True,False,True,False,UP,UP,1242,1241
430,360,430,350,420,410,DOWN,LEFT,60,70,22,True,True,True,False,True,False,UP,UP,1241,1240
430,360,430,350,420,410,DOWN,LEFT,60,70,22,True,True,True,False,True,False,UP,UP,1241,1240
430,350,430,340,420,410,DOWN,LEFT,70,80,22,True,True,True,False,True,False,UP,UP,1240,1239
430,350,430,340,420,410,DOWN,LEFT,70,80,22,True,True,True,False,True,False,UP,UP,1240,1239
430,340,430,330,420,410,DOWN,LEFT,80,90,22,True,True,True,False,True,False,UP,UP,1239,1238
430,340,430,330,420,410,DOWN,LEFT,80,90,22,True,True,True,False,True,False,UP,UP,1239,1238
430,330,430,320,420,410,DOWN,LEFT,90,100,22,True,True,True,False,True,False,UP,UP,1238,1237
430,330,430,320,420,410,DOWN,LEFT,90,100,22,True,True,True,False,True,False,UP,UP,1238,1237
430,320,420,320,420,410,DOWN,LEFT,100,90,22,True,True,True,False,True,False,UP,LEFT,1237,1236
430,320,420,320,420,410,DOWN,LEFT,100,90,22,True,True,True,False,True,False,LEFT,LEFT,1237,1236
420,320,420,330,420,410,DOWN,EQUAL,90,80,22,False,True,True,True,True,True,LEFT,DOWN,1236,1235
420,320,420,330,420,410,DOWN,EQUAL,90,80,22,False,True,True,True,True,True,DOWN,DOWN,1236,1235
420,330,420,340,420,410,DOWN,EQUAL,80,70,22,False,True,False,True,True,True,DOWN,DOWN,1235,1234
420,330,420,340,420,410,DOWN,EQUAL,80,70,22,False,True,False,True,True,True,DOWN,DOWN,1235,1234
420,340,420,350,420,410,DOWN,EQUAL,70,60,22,False,True,False,True,True,True,DOWN,DOWN,1234,1233
420,340,420,350,420,410,DOWN,EQUAL,70,60,22,False,True,False,True,True,True,DOWN,DOWN,1234,1233
420,350,420,360,420,410,DOWN,EQUAL,60,50,22,False,True,False,True,True,True,DOWN,DOWN,1233,1232
420,350,420,360,420,410,DOWN,EQUAL,60,50,22,False,True,False,True,True,True,DOWN,DOWN,1233,1232
420,360,420,370,420,410,DOWN,EQUAL,50,40,22,False,True,False,True,True,True,DOWN,DOWN,1232,1231
420,360,420,370,420,410,DOWN,EQUAL,50,40,22,False,True,False,True,True,True,DOWN,DOWN,1232,1231
420,370,420,380,420,410,DOWN,EQUAL,40,30,22,False,True,False,True,True,True,DOWN,DOWN,1231,1230
420,370,420,380,420,410,DOWN,EQUAL,40,30,22,False,True,False,True,True,True,DOWN,DOWN,1231,1230
420,380,420,390,420,410,DOWN,EQUAL,30,20,22,False,True,False,True,True,True,DOWN,DOWN,1230,1229
420,380,420,390,420,410,DOWN,EQUAL,30,20,22,False,True,False,True,True,True,DOWN,DOWN,1230,1229
420,390,420,400,420,410,DOWN,EQUAL,20,10,22,False,True,False,True,True,True,DOWN,DOWN,1229,1228
420,390,420,400,420,410,DOWN,EQUAL,20,10,22,False,True,False,True,True,True,DOWN,DOWN,1229,1228
420,400,410,400,420,410,DOWN,EQUAL,10,20,22,False,True,False,True,True,False,DOWN,LEFT,1228,1227
420,400,410,400,420,410,DOWN,EQUAL,10,20,22,False,True,False,True,False,False,LEFT,LEFT,1228,1227
410,400,400,400,420,410,DOWN,RIGHT,20,30,22,False,True,True,True,False,False,LEFT,LEFT,1227,1226
410,400,400,400,420,410,DOWN,RIGHT,20,30,22,False,True,True,True,False,False,LEFT,LEFT,1227,1226
400,400,390,400,420,410,DOWN,RIGHT,30,40,22,False,True,True,True,False,False,LEFT,LEFT,1226,1225
400,400,390,400,420,410,DOWN,RIGHT,30,40,22,False,True,True,True,False,False,LEFT,LEFT,1226,1225
390,400,380,400,420,410,DOWN,RIGHT,40,50,22,False,True,True,True,False,False,LEFT,LEFT,1225,1224
390,400,380,400,420,410,DOWN,RIGHT,40,50,22,False,True,True,True,False,False,LEFT,LEFT,1225,1224
380,400,370,400,420,410,DOWN,RIGHT,50,60,22,False,True,True,True,False,False,LEFT,LEFT,1224,1223
380,400,370,400,420,410,DOWN,RIGHT,50,60,22,False,True,True,True,False,False,LEFT,LEFT,1224,1223
370,400,360,400,420,410,DOWN,RIGHT,60,70,22,False,True,True,True,False,False,LEFT,LEFT,1223,1222
370,400,360,400,420,410,DOWN,RIGHT,60,70,22,False,True,True,True,False,False,LEFT,LEFT,1223,1222
360,400,350,400,420,410,DOWN,RIGHT,70,80,22,False,True,True,True,False,False,LEFT,LEFT,1222,1221
360,400,350,400,420,410,DOWN,RIGHT,70,80,22,False,True,True,True,False,False,LEFT,LEFT,1222,1221
350,400,350,410,420,410,DOWN,RIGHT,80,70,22,False,True,True,True,False,False,LEFT,DOWN,1221,1220
350,400,350,410,420,410,DOWN,RIGHT,80,70,22,False,True,True,True,False,False,DOWN,DOWN,1221,1220
350,410,360,410,420,410,EQUAL,RIGHT,70,60,22,True,True,False,True,False,False,DOWN,RIGHT,1220,1219
350,410,360,410,420,410,EQUAL,RIGHT,70,60,22,True,True,False,True,False,False,RIGHT,RIGHT,1220,1219
360,410,370,410,420,410,EQUAL,RIGHT,60,50,22,True,False,False,True,False,False,RIGHT,RIGHT,1219,1218
360,410,370,410,420,410,EQUAL,RIGHT,60,50,22,True,False,False,True,False,False,RIGHT,RIGHT,1219,1218
370,410,380,410,420,410,EQUAL,RIGHT,50,40,22,True,False,False,True,False,False,RIGHT,RIGHT,1218,1217
370,410,380,410,420,410,EQUAL,RIGHT,50,40,22,True,False,False,True,False,False,RIGHT,RIGHT,1218,1217
380,410,390,410,420,410,EQUAL,RIGHT,40,30,22,True,False,False,True,False,False,RIGHT,RIGHT,1217,1216
380,410,390,410,420,410,EQUAL,RIGHT,40,30,22,True,False,False,True,False,False,RIGHT,RIGHT,1217,1216
390,410,400,410,420,410,EQUAL,RIGHT,30,20,22,True,False,False,True,False,False,RIGHT,RIGHT,1216,1215
390,410,400,410,420,410,EQUAL,RIGHT,30,20,22,True,False,False,True,False,False,RIGHT,RIGHT,1216,1215
400,410,410,410,420,410,EQUAL,RIGHT,20,10,22,True,False,False,True,False,False,RIGHT,RIGHT,1215,1214
400,410,410,410,420,410,EQUAL,RIGHT,20,10,22,True,False,False,True,False,False,RIGHT,RIGHT,1215,1214
410,410,420,410,420,410,EQUAL,RIGHT,10,0,22,True,False,False,True,False,False,RIGHT,RIGHT,1214,1314
410,410,420,410,420,410,EQUAL,RIGHT,10,0,22,True,False,False,True,False,False,RIGHT,RIGHT,1214,1314
420,410,430,410,150,450,EQUAL,EQUAL,310,320,23,True,False,False,True,False,False,RIGHT,RIGHT,1314,1313
420,410,430,410,150,450,EQUAL,EQUAL,310,320,23,True,False,False,True,False,False,RIGHT,RIGHT,1314,1313
430,410,440,410,150,450,DOWN,LEFT,320,330,23,True,False,True,True,False,False,RIGHT,RIGHT,1313,1312
430,410,440,410,150,450,DOWN,LEFT,320,330,23,True,False,True,True,False,False,RIGHT,RIGHT,1313,1312
440,410,450,410,150,450,DOWN,LEFT,330,340,23,True,False,True,True,False,False,RIGHT,RIGHT,1312,1311
440,410,450,410,150,450,DOWN,LEFT,330,340,23,True,False,True,True,False,False,RIGHT,RIGHT,1312,1311
450,410,450,400,150,450,DOWN,LEFT,340,350,23,True,False,True,True,False,False,RIGHT,UP,1311,1310
450,410,450,400,150,450,DOWN,LEFT,340,350,23,True,False,True,True,True,False,UP,UP,1311,1310
450,400,450,390,150,450,DOWN,LEFT,350,360,23,True,True,True,False,True,False,UP,UP,1310,1309
450,400,450,390,150,450,DOWN,LEFT,350,360,23,True,True,True,False,True,False,UP,UP,1310,1309
450,390,450,380,150,450,DOWN,LEFT,360,370,23,True,True,True,False,True,False,UP,UP,1309,1308
450,390,450,380,150,450,DOWN,LEFT,360,370,23,True,True,True,False,True,False,UP,UP,1309,1308
450,380,450,370,150,450,DOWN,LEFT,370,380,23,True,True,True,False,True,False,UP,UP,1308,1307
450,380,450,370,150,450,DOWN,LEFT,370,380,23,True,True,True,False,True,False,UP,UP,1308,1307
450,370,440,370,150,450,DOWN,LEFT,380,370,23,True,True,True,False,True,False,UP,LEFT,1307,1306
450,370,440,370,150,450,DOWN,LEFT,380,370,23,True,True,True,False,True,False,LEFT,LEFT,1307,1306
440,370,430,370,150,450,DOWN,LEFT,370,360,23,False,True,True,True,True,False,LEFT,LEFT,1306,1305
440,370,430,370,150,450,DOWN,LEFT,370,360,23,False,True,True,True,True,False,LEFT,LEFT,1306,1305
430,370,420,370,150,450,DOWN,LEFT,360,350,23,False,True,True,True,True,False,LEFT,LEFT,1305,1304
430,370,420,370,150,450,DOWN,LEFT,360,350,23,False,True,True,True,True,False,LEFT,LEFT,1305,1304
420,370,410,370,150,450,DOWN,LEFT,350,340,23,False,True,True,True,True,False,LEFT,LEFT,1304,1303
420,370,410,370,150,450,DOWN,LEFT,350,340,23,False,True,True,True,True,False,LEFT,LEFT,1304,1303
410,370,400,370,150,450,DOWN,LEFT,340,330,23,False,True,True,True,True,False,LEFT,LEFT,1303,1302
410,370,400,370,150,450,DOWN,LEFT,340,330,23,False,True,True,True,True,False,LEFT,LEFT,1303,1302
400,370,390,370,150,450,DOWN,LEFT,330,320,23,False,True,True,True,True,False,LEFT,LEFT,1302,1301
400,370,390,370,150,450,DOWN,LEFT,330,320,23,False,True,True,True,True,False,LEFT,LEFT,1302,1301
390,370,380,370,150,450,DOWN,LEFT,320,310,23,False,True,True,True,True,False,LEFT,LEFT,1301,1300
390,370,380,370,150,450,DOWN,LEFT,320,310,23,False,True,True,True,True,False,LEFT,LEFT,1301,1300
380,370,370,370,150,450,DOWN,LEFT,310,300,23,False,True,True,True,True,False,LEFT,LEFT,1300,1299
380,370,370,370,150,450,DOWN,LEFT,310,300,23,False,True,True,True,True,False,LEFT,LEFT,1300,1299
370,370,360,370,150,450,DOWN,LEFT,300,290,23,False,True,True,True,True,False,LEFT,LEFT,1299,1298
370,370,360,370,150,450,DOWN,LEFT,300,290,23,False,True,True,True,True,False,LEFT,LEFT,1299,1298
360,370,350,370,150,450,DOWN,LEFT,290,280,23,False,True,True,True,True,False,LEFT,LEFT,1298,1297
360,370,350,370,150,450,DOWN,LEFT,290,280,23,False,True,True,True,True,False,LEFT,LEFT,1298,1297
350,370,340,370,150,450,DOWN,LEFT,280,270,23,False,True,True,True,True,False,LEFT,LEFT,1297,1296
350,370,340,370,150,450,DOWN,LEFT,280,270,23,False,True,True,True,True,False,LEFT,LEFT,1297,1296
340,370,330,370,150,450,DOWN,LEFT,270,260,23,False,True,True,True,True,False,LEFT,LEFT,1296,1295
340,370,330,370,150,450,DOWN,LEFT,270,260,23,False,True,True,True,True,False,LEFT,LEFT,1296,1295
330,370,330,380,150,450,DOWN,LEFT,260,250,23,False,True,True,True,True,False,LEFT,DOWN,1295,1294
330,370,330,380,150,450,DOWN,LEFT,260,250,23,False,True,True,True,True,False,DOWN,DOWN,1295,1294
330,380,330,390,150,450,DOWN,LEFT,250,240,23,True,True,False,True,True,False,DOWN,DOWN,1294,1293
330,380,330,390,150,450,DOWN,LEFT,250,240,23,True,True,False,True,True,False,DOWN,DOWN,1294,1293
330,390,330,400,150,450,DOWN,LEFT,240,230,23,True,True,False,True,True,False,DOWN,DOWN,1293,1292
330,390,330,400,150,450,DOWN,LEFT,240,230,23,True,True,False,True,True,False,DOWN,DOWN,1293,1292
330,400,330,410,150,450,DOWN,LEFT,230,220,23,True,True,False,True,True,False,DOWN,DOWN,1292,1291
330,400,330,410,150,450,DOWN,LEFT,230,220,23,True,True,False,True,True,False,DOWN,DOWN,1292,1291
330,410,330,420,150,450,DOWN,LEFT,220,210,23,True,True,False,True,True,False,DOWN,DOWN,1291,1290
330,410,330,420,150,450,DOWN,LEFT,220,210,23,True,True,False,True,True,False,DOWN,DOWN,1291,1290
330,420,330,430,150,450,DOWN,LEFT,210,200,23,True,True,False,True,True,False,DOWN,DOWN,1290,1289
330,420,330,430,150,450,DOWN,LEFT,210,200,23,True,True,False,True,True,False,DOWN,DOWN,1290,1289
330,430,330,440,150,450,DOWN,LEFT,200,190,23,True,True,False,True,True,False,DOWN,DOWN,1289,1288
330,430,330,440,150,450,DOWN,LEFT,200,190,23,True,True,False,True,True,False,DOWN,DOWN,1289,1288
330,440,330,450,150,450,DOWN,LEFT,190,180,23,True,True,False,True,True,False,DOWN,DOWN,1288,1287
330,440,330,450,150,450,DOWN,LEFT,190,180,23,True,True,False,True,True,False,DOWN,DOWN,1288,1287
330,450,320,450,150,450,EQUAL,LEFT,180,170,23,True,True,False,True,True,False,DOWN,LEFT,1287,1286
330,450,320,450,150,450,EQUAL,LEFT,180,170,23,True,True,False,True,False,False,LEFT,LEFT,1287,1286
320,450,310,450,150,450,EQUAL,LEFT,170,160,23,False,True,True,True,False,False,LEFT,LEFT,1286,1285
320,450,310,450,150,450,EQUAL,LEFT,170,160,23,False,True,True,True,False,False,LEFT,LEFT,1286,1285
310,450,300,450,150,450,EQUAL,LEFT,160,150,23,False,True,True,True,False,False,LEFT,LEFT,1285,1284
310,450,300,450,150,450,EQUAL,LEFT,160,150,23,False,True,True,True,False,False,LEFT,LEFT,1285,1284
300,450,290,450,150,450,EQUAL,LEFT,150,140,23,False,True,True,True,False,False,LEFT,LEFT,1284,1283
300,450,290,450,150,450,EQUAL,LEFT,150,140,23,False,True,True,True,False,False,LEFT,LEFT,1284,1283
290,450,280,450,150,450,EQUAL,LEFT,140,130,23,False,True,True,True,False,False,LEFT,LEFT,1283,1282
290,450,280,450,150,450,EQUAL,LEFT,140,130,23,False,True,True,True,False,False,LEFT,LEFT,1283,1282
280,450,270,450,150,450,EQUAL,LEFT,130,120,23,False,True,True,True,False,False,LEFT,LEFT,1282,1281
280,450,270,450,150,450,EQUAL,LEFT,130,120,23,False,True,True,True,False,False,LEFT,LEFT,1282,1281
270,450,260,450,150,450,EQUAL,LEFT,120,110,23,False,True,True,True,False,False,LEFT,LEFT,1281,1280
270,450,260,450,150,450,EQUAL,LEFT,120,110,23,False,True,True,True,False,False,LEFT,LEFT,1281,1280
260,450,250,450,150,450,EQUAL,LEFT,110,100,23,False,True,True,True,False,False,LEFT,LEFT,1280,1279
260,450,250,450,150,450,EQUAL,LEFT,110,100,23,False,True,True,True,False,False,LEFT,LEFT,1280,1279
250,450,240,450,150,450,EQUAL,LEFT,100,90,23,False,True,True,True,False,False,LEFT,LEFT,1279,1278
250,450,240,450,150,450,EQUAL,LEFT,100,90,23,False,True,True,True,False,False,LEFT,LEFT,1279,1278
240,450,230,450,150,450,EQUAL,LEFT,90,80,23,False,True,True,True,False,False,LEFT,LEFT,1278,1277
240,450,230,450,150,450,EQUAL,LEFT,90,80,23,False,True,True,True,False,False,LEFT,LEFT,1278,1277
230,450,220,450,150,450,EQUAL,LEFT,80,70,23,False,True,True,True,False,False,LEFT,LEFT,1277,1276
230,450,220,450,150,450,EQUAL,LEFT,80,70,23,False,True,True,True,False,False,LEFT,LEFT,1277,1276
220,450,210,450,150,450,EQUAL,LEFT,70,60,23,False,True,True,True,False,False,LEFT,LEFT,1276,1275
220,450,210,450,150,450,EQUAL,LEFT,70,60,23,False,True,True,True,False,False,LEFT,LEFT,1276,1275
210,450,200,450,150,450,EQUAL,LEFT,60,50,23,False,True,True,True,False,False,LEFT,LEFT,1275,1274
210,450,200,450,150,450,EQUAL,LEFT,60,50,23,False,True,True,True,False,False,LEFT,LEFT,1275,1274
200,450,190,450,150,450,EQUAL,LEFT,50,40,23,False,True,True,True,False,False,LEFT,LEFT,1274,1273
200,450,190,450,150,450,EQUAL,LEFT,50,40,23,False,True,True,True,False,False,LEFT,LEFT,1274,1273
190,450,180,450,150,450,EQUAL,LEFT,40,30,23,False,True,True,True,False,False,LEFT,LEFT,1273,1272
190,450,180,450,150,450,EQUAL,LEFT,40,30,23,False,True,True,True,False,False,LEFT,LEFT,1273,1272
180,450,170,450,150,450,EQUAL,LEFT,30,20,23,False,True,True,True,False,False,LEFT,LEFT,1272,1271
180,450,170,450,150,450,EQUAL,LEFT,30,20,23,False,True,True,True,False,False,LEFT,LEFT,1272,1271
170,450,160,450,150,450,EQUAL,LEFT,20,10,23,False,True,True,True,False,False,LEFT,LEFT,1271,1270
170,450,160,450,150,450,EQUAL,LEFT,20,10,23,False,True,True,True,False,False,LEFT,LEFT,1271,1270
160,450,150,450,150,450,EQUAL,LEFT,10,0,23,False,True,True,True,False,False,LEFT,LEFT,1270,1370
160,450,150,450,150,450,EQUAL,LEFT,10,0,23,False,True,True,True,False,False,LEFT,LEFT,1270,1370
150,450,140,450,60,330,EQUAL,EQUAL,210,200,24,False,True,True,True,False,False,LEFT,LEFT,1370,1369
150,450,140,450,60,330,EQUAL,EQUAL,210,200,24,False,True,True,True,False,False,LEFT,LEFT,1370,1369
140,450,130,450,60,330,UP,LEFT,200,190,24,False,True,True,True,False,False,LEFT,LEFT,1369,1368
140,450,130,450,60,330,UP,LEFT,200,190,24,False,True,True,True,False,False,LEFT,LEFT,1369,1368
130,450,120,450,60,330,UP,LEFT,190,180,24,False,True,True,True,False,False,LEFT,LEFT,1368,1367
130,450,120,450,60,330,UP,LEFT,190,180,24,False,True,True,True,False,False,LEFT,LEFT,1368,1367
120,450,110,450,60,330,UP,LEFT,180,170,24,False,True,True,True,False,False,LEFT,LEFT,1367,1366
120,450,110,450,60,330,UP,LEFT,180,170,24,False,True,True,True,False,False,LEFT,LEFT,1367,1366
110,450,100,450,60,330,UP,LEFT,170,160,24,False,True,True,True,False,False,LEFT,LEFT,1366,1365
110,450,100,450,60,330,UP,LEFT,170,160,24,False,True,True,True,False,False,LEFT,LEFT,1366,1365
100,450,90,450,60,330,UP,LEFT,160,150,24,False,True,True,True,False,False,LEFT,LEFT,1365,1364
100,450,90,450,60,330,UP,LEFT,160,150,24,False,True,True,True,False,False,LEFT,LEFT,1365,1364
90,450,80,450,60,330,UP,LEFT,150,140,24,False,True,True,True,False,False,LEFT,LEFT,1364,1363
90,450,80,450,60,330,UP,LEFT,150,140,24,False,True,True,True,False,False,LEFT,LEFT,1364,1363
80,450,70,450,60,330,UP,LEFT,140,130,24,False,True,True,True,False,False,LEFT,LEFT,1363,1362
80,450,70,450,60,330,UP,LEFT,140,130,24,False,True,True,True,False,False,LEFT,LEFT,1363,1362
70,450,70,440,60,330,UP,LEFT,130,120,24,False,True,True,True,False,False,LEFT,UP,1362,1361
70,450,70,440,60,330,UP,LEFT,130,120,24,False,True,True,True,False,False,UP,UP,1362,1361
70,440,70,430,60,330,UP,LEFT,120,110,24,True,True,True,False,False,False,UP,UP,1361,1360
70,440,70,430,60,330,UP,LEFT,120,110,24,True,True,True,False,False,False,UP,UP,1361,1360
70,430,70,420,60,330,UP,LEFT,110,100,24,True,True,True,False,False,False,UP,UP,1360,1359
70,430,70,420,60,330,UP,LEFT,110,100,24,True,True,True,False,False,False,UP,UP,1360,1359
70,420,70,410,60,330,UP,LEFT,100,90,24,True,True,True,False,False,False,UP,UP,1359,1358
70,420,70,410,60,330,UP,LEFT,100,90,24,True,True,True,False,False,False,UP,UP,1359,1358
70,410,70,400,60,330,UP,LEFT,90,80,24,True,True,True,False,False,False,UP,UP,1358,1357
70,410,70,400,60,330,UP,LEFT,90,80,24,True,True,True,False,False,False,UP,UP,1358,1357
70,400,60,400,60,330,UP,LEFT,80,70,24,True,True,True,False,False,False,UP,LEFT,1357,1356
70,400,60,400,60,330,UP,LEFT,80,70,24,True,True,True,False,False,False,LEFT,LEFT,1357,1356
60,400,60,390,60,330,UP,EQUAL,70,60,24,False,True,True,True,False,False,LEFT,UP,1356,1355
60,400,60,390,60,330,UP,EQUAL,70,60,24,False,True,True,True,False,False,UP,UP,1356,1355
60,390,60,380,60,330,UP,EQUAL,60,50,24,True,True,True,False,False,False,UP,UP,1355,1354
60,390,60,380,60,330,UP,EQUAL,60,50,24,True,True,True,False,False,False,UP,UP,1355,1354
60,380,60,370,60,330,UP,EQUAL,50,40,24,True,True,True,False,False,False,UP,UP,1354,1353
60,380,60,370,60,330,UP,EQUAL,50,40,24,True,True,True,False,False,False,UP,UP,1354,1353
60,370,60,360,60,330,UP,EQUAL,40,30,24,True,True,True,False,False,False,UP,UP,1353,1352
60,370,60,360,60,330,UP,EQUAL,40,30,24,True,True,True,False,False,False,UP,UP,1353,1352
60,360,60,350,60,330,UP,EQUAL,30,20,24,True,True,True,False,False,False,UP,UP,1352,1351
60,360,60,350,60,330,UP,EQUAL,30,20,24,True,True,True,False,False,False,UP,UP,1352,1351
60,350,60,340,60,330,UP,EQUAL,20,10,24,True,True,True,False,False,False,UP,UP,1351,1350
60,350,60,340,60,330,UP,EQUAL,20,10,24,True,True,True,False,False,False,UP,UP,1351,1350
60,340,60,330,60,330,UP,EQUAL,10,0,24,True,True,True,False,False,False,UP,UP,1350,1450
60,340,60,330,60,330,UP,EQUAL,10,0,24,True,True,True,False,False,False,UP,UP,1350,1450
60,330,60,320,420,120,EQUAL,EQUAL,570,560,25,True,True,True,False,False,False,UP,UP,1450,1449
60,330,60,320,420,120,EQUAL,EQUAL,570,560,25,True,True,True,False,False,False,UP,UP,1450,1449
60,320,60,310,420,120,UP,RIGHT,560,550,25,True,True,True,False,False,False,UP,UP,1449,1448
60,320,60,310,420,120,UP,RIGHT,560,550,25,True,True,True,False,False,False,UP,UP,1449,1448
60,310,60,300,420,120,UP,RIGHT,550,540,25,True,True,True,False,False,False,UP,UP,1448,1447
60,310,60,300,420,120,UP,RIGHT,550,540,25,True,True,True,False,False,False,UP,UP,1448,1447
60,300,60,290,420,120,UP,RIGHT,540,530,25,True,True,True,False,False,False,UP,UP,1447,1446
60,300,60,290,420,120,UP,RIGHT,540,530,25,True,True,True,False,False,False,UP,UP,1447,1446
60,290,60,280,420,120,UP,RIGHT,530,520,25,True,True,True,False,False,False,UP,UP,1446,1445
60,290,60,280,420,120,UP,RIGHT,530,520,25,True,True,True,False,False,False,UP,UP,1446,1445
60,280,60,270,420,120,UP,RIGHT,520,510,25,True,True,True,False,False,False,UP,UP,1445,1444
60,280,60,270,420,120,UP,RIGHT,520,510,25,True,True,True,False,False,False,UP,UP,1445,1444
60,270,60,260,420,120,UP,RIGHT,510,500,25,True,True,True,False,False,False,UP,UP,1444,1443
60,270,60,260,420,120,UP,RIGHT,510,500,25,True,True,True,False,False,False,UP,UP,1444,1443
60,260,60,250,420,120,UP,RIGHT,500,490,25,True,True,True,False,False,False,UP,UP,1443,1442
60,260,60,250,420,120,UP,RIGHT,500,490,25,True,True,True,False,False,False,UP,UP,1443,1442
60,250,60,240,420,120,UP,RIGHT,490,480,25,True,True,True,False,False,False,UP,UP,1442,1441
60,250,60,240,420,120,UP,RIGHT,490,480,25,True,True,True,False,False,False,UP,UP,1442,1441
60,240,60,230,420,120,UP,RIGHT,480,470,25,True,True,True,False,False,False,UP,UP,1441,1440
60,240,60,230,420,120,UP,RIGHT,480,470,25,True,True,True,False,False,False,UP,UP,1441,1440
60,230,60,220,420,120,UP,RIGHT,470,460,25,True,True,True,False,False,False,UP,UP,1440,1439
60,230,60,220,420,120,UP,RIGHT,470,460,25,True,True,True,False,False,False,UP,UP,1440,1439
60,220,60,210,420,120,UP,RIGHT,460,450,25,True,True,True,False,False,False,UP,UP,1439,1438
60,220,60,210,420,120,UP,RIGHT,460,450,25,True,True,True,False,False,False,UP,UP,1439,1438
60,210,60,200,420,120,UP,RIGHT,450,440,25,True,True,True,False,False,False,UP,UP,1438,1437
60,210,60,200,420,120,UP,RIGHT,450,440,25,True,True,True,False,False,False,UP,UP,1438,1437
60,200,60,190,420,120,UP,RIGHT,440,430,25,True,True,True,False,False,False,UP,UP,1437,1436
60,200,60,190,420,120,UP,RIGHT,440,430,25,True,True,True,False,False,False,UP,UP,1437,1436
60,190,60,180,420,120,UP,RIGHT,430,420,25,True,True,True,False,False,False,UP,UP,1436,1435
60,190,60,180,420,120,UP,RIGHT,430,420,25,True,True,True,False,False,False,UP,UP,1436,1435
60,180,60,170,420,120,UP,RIGHT,420,410,25,True,True,True,False,False,False,UP,UP,1435,1434
60,180,60,170,420,120,UP,RIGHT,420,410,25,True,True,True,False,False,False,UP,UP,1435,1434
60,170,60,160,420,120,UP,RIGHT,410,400,25,True,True,True,False,False,False,UP,UP,1434,1433
60,170,60,160,420,120,UP,RIGHT,410,400,25,True,True,True,False,False,False,UP,UP,1434,1433
60,160,60,150,420,120,UP,RIGHT,400,390,25,True,True,True,False,False,False,UP,UP,1433,1432
60,160,60,150,420,120,UP,RIGHT,400,390,25,True,True,True,False,False,False,UP,UP,1433,1432
60,150,60,140,420,120,UP,RIGHT,390,380,25,True,True,True,False,False,False,UP,UP,1432,1431
60,150,60,140,420,120,UP,RIGHT,390,380,25,True,True,True,False,False,False,UP,UP,1432,1431
60,140,60,130,420,120,UP,RIGHT,380,370,25,True,True,True,False,False,False,UP,UP,1431,1430
60,140,60,130,420,120,UP,RIGHT,380,370,25,True,True,True,False,False,False,UP,UP,1431,1430
60,130,60,120,420,120,UP,RIGHT,370,360,25,True,True,True,False,False,False,UP,UP,1430,1429
60,130,60,120,420,120,UP,RIGHT,370,360,25,True,True,True,False,False,False,UP,UP,1430,1429
60,120,60,110,420,120,EQUAL,RIGHT,360,370,25,True,True,True,False,False,False,UP,UP,1429,1428
60,120,60,110,420,120,EQUAL,RIGHT,360,370,25,True,True,True,False,False,False,UP,UP,1429,1428
60,110,70,110,420,120,DOWN,RIGHT,370,360,25,True,True,True,False,False,False,UP,RIGHT,1428,1427
60,110,70,110,420,120,DOWN,RIGHT,370,360,25,True,True,True,False,False,False,RIGHT,RIGHT,1428,1427
70,110,80,110,420,120,DOWN,RIGHT,360,350,25,True,False,True,True,False,False,RIGHT,RIGHT,1427,1426
70,110,80,110,420,120,DOWN,RIGHT,360,350,25,True,False,True,True,False,False,RIGHT,RIGHT,1427,1426
80,110,90,110,420,120,DOWN,RIGHT,350,340,25,True,False,True,True,False,False,RIGHT,RIGHT,1426,1425
80,110,90,110,420,120,DOWN,RIGHT,350,340,25,True,False,True,True,False,False,RIGHT,RIGHT,1426,1425
90,110,100,110,420,120,DOWN,RIGHT,340,330,25,True,False,True,True,False,False,RIGHT,RIGHT,1425,1424
90,110,100,110,420,120,DOWN,RIGHT,340,330,25,True,False,True,True,False,False,RIGHT,RIGHT,1425,1424
100,110,110,110,420,120,DOWN,RIGHT,330,320,25,True,False,True,True,False,False,RIGHT,RIGHT,1424,1423
100,110,110,110,420,120,DOWN,RIGHT,330,320,25,True,False,True,True,False,False,RIGHT,RIGHT,1424,1423
110,110,120,110,420,120,DOWN,RIGHT,320,310,25,True,False,True,True,False,False,RIGHT,RIGHT,1423,1422
110,110,120,110,420,120,DOWN,RIGHT,320,310,25,True,False,True,True,False,False,RIGHT,RIGHT,1423,1422
120,110,130,110,420,120,DOWN,RIGHT,310,300,25,True,False,True,True,False,False,RIGHT,RIGHT,1422,1421
120,110,130,110,420,120,DOWN,RIGHT,310,300,25,True,False,True,True,False,False,RIGHT,RIGHT,1422,1421
130,110,140,110,420,120,DOWN,RIGHT,300,290,25,True,False,True,True,False,False,RIGHT,RIGHT,1421,1420
130,110,140,110,420,120,DOWN,RIGHT,300,290,25,True,False,True,True,False,False,RIGHT,RIGHT,1421,1420
140,110,150,110,420,120,DOWN,RIGHT,290,280,25,True,False,True,True,False,False,RIGHT,RIGHT,1420,1419
140,110,150,110,420,120,DOWN,RIGHT,290,280,25,True,False,True,True,False,False,RIGHT,RIGHT,1420,1419
150,110,160,110,420,120,DOWN,RIGHT,280,270,25,True,False,True,True,False,False,RIGHT,RIGHT,1419,1418
150,110,160,110,420,120,DOWN,RIGHT,280,270,25,True,False,True,True,False,False,RIGHT,RIGHT,1419,1418
160,110,170,110,420,120,DOWN,RIGHT,270,260,25,True,False,True,True,False,False,RIGHT,RIGHT,1418,1417
160,110,170,110,420,120,DOWN,RIGHT,270,260,25,True,False,True,True,False,False,RIGHT,RIGHT,1418,1417
170,110,180,110,420,120,DOWN,RIGHT,260,250,25,True,False,True,True,False,False,RIGHT,RIGHT,1417,1416
170,110,180,110,420,120,DOWN,RIGHT,260,250,25,True,False,True,True,False,False,RIGHT,RIGHT,1417,1416
180,110,190,110,420,120,DOWN,RIGHT,250,240,25,True,False,True,True,False,False,RIGHT,RIGHT,1416,1415
180,110,190,110,420,120,DOWN,RIGHT,250,240,25,True,False,True,True,False,False,RIGHT,RIGHT,1416,1415
190,110,200,110,420,120,DOWN,RIGHT,240,230,25,True,False,True,True,False,False,RIGHT,RIGHT,1415,1414
190,110,200,110,420,120,DOWN,RIGHT,240,230,25,True,False,True,True,False,False,RIGHT,RIGHT,1415,1414
200,110,210,110,420,120,DOWN,RIGHT,230,220,25,True,False,True,True,False,False,RIGHT,RIGHT,1414,1413
200,110,210,110,420,120,DOWN,RIGHT,230,220,25,True,False,True,True,False,False,RIGHT,RIGHT,1414,1413
210,110,220,110,420,120,DOWN,RIGHT,220,210,25,True,False,True,True,False,False,RIGHT,RIGHT,1413,1412
210,110,220,110,420,120,DOWN,RIGHT,220,210,25,True,False,True,True,False,False,RIGHT,RIGHT,1413,1412
220,110,230,110,420,120,DOWN,RIGHT,210,200,25,True,False,True,True,False,False,RIGHT,RIGHT,1412,1411
220,110,230,110,420,120,DOWN,RIGHT,210,200,25,True,False,True,True,False,False,RIGHT,RIGHT,1412,1411
230,110,240,110,420,120,DOWN,RIGHT,200,190,25,True,False,True,True,False,False,RIGHT,RIGHT,1411,1410
230,110,240,110,420,120,DOWN,RIGHT,200,190,25,True,False,True,True,False,False,RIGHT,RIGHT,1411,1410
240,110,250,110,420,120,DOWN,RIGHT,190,180,25,True,False,True,True,False,False,RIGHT,RIGHT,1410,1409
240,110,250,110,420,120,DOWN,RIGHT,190,180,25,True,False,True,True,False,False,RIGHT,RIGHT,1410,1409
250,110,260,110,420,120,DOWN,RIGHT,180,170,25,True,False,True,True,False,False,RIGHT,RIGHT,1409,1408
250,110,260,110,420,120,DOWN,RIGHT,180,170,25,True,False,True,True,False,False,RIGHT,RIGHT,1409,1408
260,110,270,110,420,120,DOWN,RIGHT,170,160,25,True,False,True,True,False,False,RIGHT,RIGHT,1408,1407
260,110,270,110,420,120,DOWN,RIGHT,170,160,25,True,False,True,True,False,False,RIGHT,RIGHT,1408,1407
270,110,280,110,420,120,DOWN,RIGHT,160,150,25,True,False,True,True,False,False,RIGHT,RIGHT,1407,1406
270,110,280,110,420,120,DOWN,RIGHT,160,150,25,True,False,True,True,False,False,RIGHT,RIGHT,1407,1406
280,110,290,110,420,120,DOWN,RIGHT,150,140,25,True,False,True,True,False,False,RIGHT,RIGHT,1406,1405
280,110,290,110,420,120,DOWN,RIGHT,150,140,25,True,False,True,True,False,False,RIGHT,RIGHT,1406,1405
290,110,300,110,420,120,DOWN,RIGHT,140,130,25,True,False,True,True,False,False,RIGHT,RIGHT,1405,1404
290,110,300,110,420,120,DOWN,RIGHT,140,130,25,True,False,True,True,False,False,RIGHT,RIGHT,1405,1404
300,110,310,110,420,120,DOWN,RIGHT,130,120,25,True,False,True,True,False,False,RIGHT,RIGHT,1404,1403
300,110,310,110,420,120,DOWN,RIGHT,130,120,25,True,False,True,True,False,False,RIGHT,RIGHT,1404,1403
310,110,320,110,420,120,DOWN,RIGHT,120,110,25,True,False,True,True,False,False,RIGHT,RIGHT,1403,1402
310,110,320,110,420,120,DOWN,RIGHT,120,110,25,True,False,True,True,False,False,RIGHT,RIGHT,1403,1402
320,110,330,110,420,120,DOWN,RIGHT,110,100,25,True,False,True,True,False,False,RIGHT,RIGHT,1402,1401
320,110,330,110,420,120,DOWN,RIGHT,110,100,25,True,False,True,True,False,False,RIGHT,RIGHT,1402,1401
330,110,340,110,420,120,DOWN,RIGHT,100,90,25,True,False,True,True,False,False,RIGHT,RIGHT,1401,1400
330,110,340,110,420,120,DOWN,RIGHT,100,90,25,True,False,True,True,False,False,RIGHT,RIGHT,1401,1400
340,110,350,110,420,120,DOWN,RIGHT,90,80,25,True,False,True,True,False,False,RIGHT,RIGHT,1400,1399
340,110,350,110,420,120,DOWN,RIGHT,90,80,25,True,False,True,True,False,False,RIGHT,RIGHT,1400,1399
350,110,360,110,420,120,DOWN,RIGHT,80,70,25,True,False,True,True,False,False,RIGHT,RIGHT,1399,1398
350,110,360,110,420,120,DOWN,RIGHT,80,70,25,True,False,True,True,False,False,RIGHT,RIGHT,1399,1398
360,110,370,110,420,120,DOWN,RIGHT,70,60,25,True,False,True,True,False,False,RIGHT,RIGHT,1398,1397
360,110,370,110,420,120,DOWN,RIGHT,70,60,25,True,False,True,True,False,False,RIGHT,RIGHT,1398,1397
370,110,380,110,420,120,DOWN,RIGHT,60,50,25,True,False,True,True,False,False,RIGHT,RIGHT,1397,1396
370,110,380,110,420,120,DOWN,RIGHT,60,50,25,True,False,True,True,False,False,RIGHT,RIGHT,1397,1396
380,110,390,110,420,120,DOWN,RIGHT,50,40,25,True,False,True,True,False,False,RIGHT,RIGHT,1396,1395
380,110,390,110,420,120,DOWN,RIGHT,50,40,25,True,False,True,True,False,False,RIGHT,RIGHT,1396,1395
390,110,400,110,420,120,DOWN,RIGHT,40,30,25,True,False,True,True,False,False,RIGHT,RIGHT,1395,1394
390,110,400,110,420,120,DOWN,RIGHT,40,30,25,True,False,True,True,False,False,RIGHT,RIGHT,1395,1394
400,110,410,110,420,120,DOWN,RIGHT,30,20,25,True,False,True,True,False,False,RIGHT,RIGHT,1394,1393
400,110,410,110,420,120,DOWN,RIGHT,30,20,25,True,False,True,True,False,False,RIGHT,RIGHT,1394,1393
410,110,420,110,420,120,DOWN,RIGHT,20,10,25,True,False,True,True,False,False,RIGHT,RIGHT,1393,1392
410,110,420,110,420,120,DOWN,RIGHT,20,10,25,True,False,True,True,False,False,RIGHT,RIGHT,1393,1392
420,110,420,120,420,120,DOWN,EQUAL,10,0,25,True,False,True,True,False,False,RIGHT,DOWN,1392,1492
420,110,420,120,420,120,DOWN,EQUAL,10,0,25,True,False,True,True,True,False,DOWN,DOWN,1392,1492
420,120,420,130,460,200,EQUAL,EQUAL,120,110,26,True,True,False,True,True,False,DOWN,DOWN,1492,1491
420,120,420,130,460,200,EQUAL,EQUAL,120,110,26,True,True,False,True,True,False,DOWN,DOWN,1492,1491
420,130,420,140,460,200,DOWN,RIGHT,110,100,26,True,True,False,True,True,False,DOWN,DOWN,1491,1490
420,130,420,140,460,200,DOWN,RIGHT,110,100,26,True,True,False,True,True,False,DOWN,DOWN,1491,1490
420,140,420,150,460,200,DOWN,RIGHT,100,90,26,True,True,False,True,True,False,DOWN,DOWN,1490,1489
420,140,420,150,460,200,DOWN,RIGHT,100,90,26,True,True,False,True,True,False,DOWN,DOWN,1490,1489
420,150,420,160,460,200,DOWN,RIGHT,90,80,26,True,True,False,True,True,False,DOWN,DOWN,1489,1488
420,150,420,160,460,200,DOWN,RIGHT,90,80,26,True,True,False,True,True,False,DOWN,DOWN,1489,1488
420,160,420,170,460,200,DOWN,RIGHT,80,70,26,True,True,False,True,True,False,DOWN,DOWN,1488,1487
420,160,420,170,460,200,DOWN,RIGHT,80,70,26,True,True,False,True,True,False,DOWN,DOWN,1488,1487
420,170,420,180,460,200,DOWN,RIGHT,70,60,26,True,True,False,True,True,False,DOWN,DOWN,1487,1486
420,170,420,180,460,200,DOWN,RIGHT,70,60,26,True,True,False,True,True,False,DOWN,DOWN,1487,1486
420,180,420,190,460,200,DOWN,RIGHT,60,50,26,True,True,False,True,True,False,DOWN,DOWN,1486,1485
420,180,420,190,460,200,DOWN,RIGHT,60,50,26,True,True,False,True,True,False,DOWN,DOWN,1486,1485
420,190,430,190,460,200,DOWN,RIGHT,50,40,26,True,True,False,True,True,False,DOWN,RIGHT,1485,1484
420,190,430,190,460,200,DOWN,RIGHT,50,40,26,True,True,False,True,False,False,RIGHT,RIGHT,1485,1484
430,190,440,190,460,200,DOWN,RIGHT,40,30,26,True,False,True,True,False,False,RIGHT,RIGHT,1484,1483
430,190,440,190,460,200,DOWN,RIGHT,40,30,26,True,False,True,True,False,False,RIGHT,RIGHT,1484,1483
440,190,450,190,460,200,DOWN,RIGHT,30,20,26,True,False,True,True,False,False,RIGHT,RIGHT,1483,1482
440,190,450,190,460,200,DOWN,RIGHT,30,20,26,True,False,True,True,False,False,RIGHT,RIGHT,1483,1482
450,190,460,190,460,200,DOWN,RIGHT,20,10,26,True,False,True,True,False,False,RIGHT,RIGHT,1482,1481
450,190,460,190,460,200,DOWN,RIGHT,20,10,26,True,False,True,True,False,False,RIGHT,RIGHT,1482,1481
460,190,460,200,460,200,DOWN,EQUAL,10,0,26,True,False,True,True,False,False,RIGHT,DOWN,1481,1581
460,190,460,200,460,200,DOWN,EQUAL,10,0,26,True,False,True,True,False,False,DOWN,DOWN,1481,1581
460,200,460,210,130,280,EQUAL,EQUAL,410,400,27,True,True,False,True,False,False,DOWN,DOWN,1581,1580
460,200,460,210,130,280,EQUAL,EQUAL,410,400,27,True,True,False,True,False,False,DOWN,DOWN,1581,1580
460,210,460,220,130,280,DOWN,LEFT,400,390,27,True,True,False,True,False,False,DOWN,DOWN,1580,1579
460,210,460,220,130,280,DOWN,LEFT,400,390,27,True,True,False,True,False,False,DOWN,DOWN,1580,1579
460,220,460,230,130,280,DOWN,LEFT,390,380,27,True,True,False,True,False,False,DOWN,DOWN,1579,1578
460,220,460,230,130,280,DOWN,LEFT,390,380,27,True,True,False,True,False,False,DOWN,DOWN,1579,1578
460,230,460,240,130,280,DOWN,LEFT,380,370,27,True,True,False,True,False,False,DOWN,DOWN,1578,1577
460,230,460,240,130,280,DOWN,LEFT,380,370,27,True,True,False,True,False,False,DOWN,DOWN,1578,1577
460,240,460,250,130,280,DOWN,LEFT,370,360,27,True,True,False,True,False,False,DOWN,DOWN,1577,1576
460,240,460,250,130,280,DOWN,LEFT,370,360,27,True,True,False,True,False,False,DOWN,DOWN,1577,1576
460,250,450,250,130,280,DOWN,LEFT,360,350,27,True,True,False,True,False,False,DOWN,LEFT,1576,1575
460,250,450,250,130,280,DOWN,LEFT,360,350,27,True,True,False,True,False,False,LEFT,LEFT,1576,1575
450,250,440,250,130,280,DOWN,LEFT,350,340,27,False,True,True,True,False,False,LEFT,LEFT,1575,1574
450,250,440,250,130,280,DOWN,LEFT,350,340,27,False,True,True,True,False,False,LEFT,LEFT,1575,1574
440,250,430,250,130,280,DOWN,LEFT,340,330,27,False,True,True,True,False,False,LEFT,LEFT,1574,1573
440,250,430,250,130,280,DOWN,LEFT,340,330,27,False,True,True,True,False,False,LEFT,LEFT,1574,1573
430,250,420,250,130,280,DOWN,LEFT,330,320,27,False,True,True,True,False,False,LEFT,LEFT,1573,1572
430,250,420,250,130,280,DOWN,LEFT,330,320,27,False,True,True,True,False,False,LEFT,LEFT,1573,1572
420,250,410,250,130,280,DOWN,LEFT,320,310,27,False,True,True,True,False,False,LEFT,LEFT,1572,1571
420,250,410,250,130,280,DOWN,LEFT,320,310,27,False,True,True,True,False,False,LEFT,LEFT,1572,1571
410,250,400,250,130,280,DOWN,LEFT,310,300,27,False,True,True,True,False,False,LEFT,LEFT,1571,1570
410,250,400,250,130,280,DOWN,LEFT,310,300,27,False,True,True,True,False,False,LEFT,LEFT,1571,1570
400,250,390,250,130,280,DOWN,LEFT,300,290,27,False,True,True,True,False,False,LEFT,LEFT,1570,1569
400,250,390,250,130,280,DOWN,LEFT,300,290,27,False,True,True,True,False,False,LEFT,LEFT,1570,1569
390,250,380,250,130,280,DOWN,LEFT,290,280,27,False,True,True,True,False,False,LEFT,LEFT,1569,1568
390,250,380,250,130,280,DOWN,LEFT,290,280,27,False,True,True,True,False,False,LEFT,LEFT,1569,1568
380,250,380,260,130,280,DOWN,LEFT,280,270,27,False,True,True,True,False,False,LEFT,DOWN,1568,1567
380,250,380,260,130,280,DOWN,LEFT,280,270,27,False,True,True,True,False,False,DOWN,DOWN,1568,1567
380,260,380,270,130,280,DOWN,LEFT,270,260,27,True,True,False,True,False,False,DOWN,DOWN,1567,1566
380,260,380,270,130,280,DOWN,LEFT,270,260,27,True,True,False,True,False,False,DOWN,DOWN,1567,1566
380,270,380,280,130,280,DOWN,LEFT,260,250,27,True,True,False,True,False,False,DOWN,DOWN,1566,1565
380,270,380,280,130,280,DOWN,LEFT,260,250,27,True,True,False,True,False,False,DOWN,DOWN,1566,1565
380,280,370,280,130,280,EQUAL,LEFT,250,240,27,True,True,False,True,False,False,DOWN,LEFT,1565,1564
380,280,370,280,130,280,EQUAL,LEFT,250,240,27,True,True,False,True,False,False,LEFT,LEFT,1565,1564
370,280,360,280,130,280,EQUAL,LEFT,240,230,27,False,True,True,True,False,False,LEFT,LEFT,1564,1563
370,280,360,280,130,280,EQUAL,LEFT,240,230,27,False,True,True,True,False,False,LEFT,LEFT,1564,1563
360,280,350,280,130,280,EQUAL,LEFT,230,220,27,False,True,True,True,False,False,LEFT,LEFT,1563,1562
360,280,350,280,130,280,EQUAL,LEFT,230,220,27,False,True,True,True,False,False,LEFT,LEFT,1563,1562
350,280,340,280,130,280,EQUAL,LEFT,220,210,27,False,True,True,True,False,False,LEFT,LEFT,1562,1561
350,280,340,280,130,280,EQUAL,LEFT,220,210,27,False,True,True,True,False,False,LEFT,LEFT,1562,1561
340,280,330,280,130,280,EQUAL,LEFT,210,200,27,False,True,True,True,False,False,LEFT,LEFT,1561,1560
340,280,330,280,130,280,EQUAL,LEFT,210,200,27,False,True,True,True,False,False,LEFT,LEFT,1561,1560
330,280,320,280,130,280,EQUAL,LEFT,200,190,27,False,True,True,True,False,False,LEFT,LEFT,1560,1559
330,280,320,280,130,280,EQUAL,LEFT,200,190,27,False,True,True,True,False,False,LEFT,LEFT,1560,1559
320,280,310,280,130,280,EQUAL,LEFT,190,180,27,False,True,True,True,False,False,LEFT,LEFT,1559,1558
320,280,310,280,130,280,EQUAL,LEFT,190,180,27,False,True,True,True,False,False,LEFT,LEFT,1559,1558
310,280,300,280,130,280,EQUAL,LEFT,180,170,27,False,True,True,True,False,False,LEFT,LEFT,1558,1557
310,280,300,280,130,280,EQUAL,LEFT,180,170,27,False,True,True,True,False,False,LEFT,LEFT,1558,1557
300,280,290,280,130,280,EQUAL,LEFT,170,160,27,False,True,True,True,False,False,LEFT,LEFT,1557,1556
300,280,290,280,130,280,EQUAL,LEFT,170,160,27,False,True,True,True,False,False,LEFT,LEFT,1557,1556
290,280,280,280,130,280,EQUAL,LEFT,160,150,27,False,True,True,True,False,False,LEFT,LEFT,1556,1555
290,280,280,280,130,280,EQUAL,LEFT,160,150,27,False,True,True,True,False,False,LEFT,LEFT,1556,1555
280,280,270,280,130,280,EQUAL,LEFT,150,140,27,False,True,True,True,False,False,LEFT,LEFT,1555,1554
280,280,270,280,130,280,EQUAL,LEFT,150,140,27,False,True,True,True,False,False,LEFT,LEFT,1555,1554
270,280,260,280,130,280,EQUAL,LEFT,140,130,27,False,True,True,True,False,False,LEFT,LEFT,1554,1553
270,280,260,280,130,280,EQUAL,LEFT,140,130,27,False,True,True,True,False,False,LEFT,LEFT,1554,1553
260,280,250,280,130,280,EQUAL,LEFT,130,120,27,False,True,True,True,False,False,LEFT,LEFT,1553,1552
260,280,250,280,130,280,EQUAL,LEFT,130,120,27,False,True,True,True,False,False,LEFT,LEFT,1553,1552
250,280,240,280,130,280,EQUAL,LEFT,120,110,27,False,True,True,True,False,False,LEFT,LEFT,1552,1551
250,280,240,280,130,280,EQUAL,LEFT,120,110,27,False,True,True,True,False,False,LEFT,LEFT,1552,1551
240,280,230,280,130,280,EQUAL,LEFT,110,100,27,False,True,True,True,False,False,LEFT,LEFT,1551,1550
240,280,230,280,130,280,EQUAL,LEFT,110,100,27,False,True,True,True,False,False,LEFT,LEFT,1551,1550
230,280,220,280,130,280,EQUAL,LEFT,100,90,27,False,True,True,True,False,False,LEFT,LEFT,1550,1549
230,280,220,280,130,280,EQUAL,LEFT,100,90,27,False,True,True,True,False,False,LEFT,LEFT,1550,1549
220,280,210,280,130,280,EQUAL,LEFT,90,80,27,False,True,True,True,False,False,LEFT,LEFT,1549,1548
220,280,210,280,130,280,EQUAL,LEFT,90,80,27,False,True,True,True,False,False,LEFT,LEFT,1549,1548
210,280,200,280,130,280,EQUAL,LEFT,80,70,27,False,True,True,True,False,False,LEFT,LEFT,1548,1547
210,280,200,280,130,280,EQUAL,LEFT,80,70,27,False,True,True,True,False,False,LEFT,LEFT,1548,1547
200,280,190,280,130,280,EQUAL,LEFT,70,60,27,False,True,True,True,False,False,LEFT,LEFT,1547,1546
200,280,190,280,130,280,EQUAL,LEFT,70,60,27,False,True,True,True,False,False,LEFT,LEFT,1547,1546
190,280,180,280,130,280,EQUAL,LEFT,60,50,27,False,True,True,True,False,False,LEFT,LEFT,1546,1545
190,280,180,280,130,280,EQUAL,LEFT,60,50,27,False,True,True,True,False,False,LEFT,LEFT,1546,1545
180,280,170,280,130,280,EQUAL,LEFT,50,40,27,False,True,True,True,False,False,LEFT,LEFT,1545,1544
180,280,170,280,130,280,EQUAL,LEFT,50,40,27,False,True,True,True,False,False,LEFT,LEFT,1545,1544
170,280,160,280,130,280,EQUAL,LEFT,40,30,27,False,True,True,True,False,False,LEFT,LEFT,1544,1543
170,280,160,280,130,280,EQUAL,LEFT,40,30,27,False,True,True,True,False,False,LEFT,LEFT,1544,1543
160,280,150,280,130,280,EQUAL,LEFT,30,20,27,False,True,True,True,False,False,LEFT,LEFT,1543,1542
160,280,150,280,130,280,EQUAL,LEFT,30,20,27,False,True,True,True,False,False,LEFT,LEFT,1543,1542
150,280,140,280,130,280,EQUAL,LEFT,20,10,27,False,True,True,True,False,False,LEFT,LEFT,1542,1541
150,280,140,280,130,280,EQUAL,LEFT,20,10,27,False,True,True,True,False,False,LEFT,LEFT,1542,1541
140,280,130,280,130,280,EQUAL,LEFT,10,0,27,False,True,True,True,False,False,LEFT,LEFT,1541,1641
140,280,130,280,130,280,EQUAL,LEFT,10,0,27,False,True,True,True,False,False,LEFT,LEFT,1541,1641
130,280,120,280,290,280,EQUAL,EQUAL,160,170,28,False,True,True,True,False,False,LEFT,LEFT,1641,1640
130,280,120,280,290,280,EQUAL,EQUAL,160,170,28,False,True,True,True,False,False,LEFT,LEFT,1641,1640
120,280,110,280,290,280,EQUAL,RIGHT,170,180,28,False,True,True,True,False,False,LEFT,LEFT,1640,1639
120,280,110,280,290,280,EQUAL,RIGHT,170,180,28,False,True,True,True,False,False,LEFT,LEFT,1640,1639
110,280,100,280,290,280,EQUAL,RIGHT,180,190,28,False,True,True,True,False,False,LEFT,LEFT,1639,1638
110,280,100,280,290,280,EQUAL,RIGHT,180,190,28,False,True,True,True,False,False,LEFT,LEFT,1639,1638
100,280,90,280,290,280,EQUAL,RIGHT,190,200,28,False,True,True,True,False,False,LEFT,LEFT,1638,1637
100,280,90,280,290,280,EQUAL,RIGHT,190,200,28,False,True,True,True,False,False,LEFT,LEFT,1638,1637
90,280,80,280,290,280,EQUAL,RIGHT,200,210,28,False,True,True,True,False,False,LEFT,LEFT,1637,1636
90,280,80,280,290,280,EQUAL,RIGHT,200,210,28,False,True,True,True,False,False,LEFT,LEFT,1637,1636
80,280,80,290,290,280,EQUAL,RIGHT,210,220,28,False,True,True,True,False,False,LEFT,DOWN,1636,1635
80,280,80,290,290,280,EQUAL,RIGHT,210,220,28,False,True,True,True,False,False,DOWN,DOWN,1636,1635
80,290,80,300,290,280,UP,RIGHT,220,230,28,True,True,False,True,False,False,DOWN,DOWN,1635,1634
80,290,80,300,290,280,UP,RIGHT,220,230,28,True,True,False,True,False,False,DOWN,DOWN,1635,1634
80,300,80,310,290,280,UP,RIGHT,230,240,28,True,True,False,True,False,False,DOWN,DOWN,1634,1633
80,300,80,310,290,280,UP,RIGHT,230,240,28,True,True,False,True,False,False,DOWN,DOWN,1634,1633
80,310,80,320,290,280,UP,RIGHT,240,250,28,True,True,False,True,False,False,DOWN,DOWN,1633,1632
80,310,80,320,290,280,UP,RIGHT,240,250,28,True,True,False,True,False,False,DOWN,DOWN,1633,1632
80,320,90,320,290,280,UP,RIGHT,250,240,28,True,True,False,True,False,False,DOWN,RIGHT,1632,1631
80,320,90,320,290,280,UP,RIGHT,250,240,28,True,True,False,True,False,False,RIGHT,RIGHT,1632,1631
90,320,100,320,290,280,UP,RIGHT,240,230,28,True,False,True,True,False,False,RIGHT,RIGHT,1631,1630
90,320,100,320,290,280,UP,RIGHT,240,230,28,True,False,True,True,False,False,RIGHT,RIGHT,1631,1630
100,320,110,320,290,280,UP,RIGHT,230,220,28,True,False,True,True,False,False,RIGHT,RIGHT,1630,1629
100,320,110,320,290,280,UP,RIGHT,230,220,28,True,False,True,True,False,False,RIGHT,RIGHT,1630,1629
110,320,120,320,290,280,UP,RIGHT,220,210,28,True,False,True,True,False,False,RIGHT,RIGHT,1629,1628
110,320,120,320,290,280,UP,RIGHT,220,210,28,True,False,True,True,False,False,RIGHT,RIGHT,1629,1628
120,320,130,320,290,280,UP,RIGHT,210,200,28,True,False,True,True,False,False,RIGHT,RIGHT,1628,1627
120,320,130,320,290,280,UP,RIGHT,210,200,28,True,False,True,True,False,False,RIGHT,RIGHT,1628,1627
130,320,140,320,290,280,UP,RIGHT,200,190,28,True,False,True,True,False,False,RIGHT,RIGHT,1627,1626
130,320,140,320,290,280,UP,RIGHT,200,190,28,True,False,True,True,False,False,RIGHT,RIGHT,1627,1626
140,320,150,320,290,280,UP,RIGHT,190,180,28,True,False,True,True,False,False,RIGHT,RIGHT,1626,1625
140,320,150,320,290,280,UP,RIGHT,190,180,28,True,False,True,True,False,False,RIGHT,RIGHT,1626,1625
150,320,160,320,290,280,UP,RIGHT,180,170,28,True,False,True,True,False,False,RIGHT,RIGHT,1625,1624
150,320,160,320,290,280,UP,RIGHT,180,170,28,True,False,True,True,False,False,RIGHT,RIGHT,1625,1624
160,320,170,320,290,280,UP,RIGHT,170,160,28,True,False,True,True,False,False,RIGHT,RIGHT,1624,1623
160,320,170,320,290,280,UP,RIGHT,170,160,28,True,False,True,True,False,False,RIGHT,RIGHT,1624,1623
170,320,180,320,290,280,UP,RIGHT,160,150,28,True,False,True,True,False,False,RIGHT,RIGHT,1623,1622
170,320,180,320,290,280,UP,RIGHT,160,150,28,True,False,True,True,False,False,RIGHT,RIGHT,1623,1622
180,320,190,320,290,280,UP,RIGHT,150,140,28,True,False,True,True,False,False,RIGHT,RIGHT,1622,1621
180,320,190,320,290,280,UP,RIGHT,150,140,28,True,False,True,True,False,False,RIGHT,RIGHT,1622,1621
190,320,200,320,290,280,UP,RIGHT,140,130,28,True,False,True,True,False,False,RIGHT,RIGHT,1621,1620
190,320,200,320,290,280,UP,RIGHT,140,130,28,True,False,True,True,False,False,RIGHT,RIGHT,1621,1620
200,320,210,320,290,280,UP,RIGHT,130,120,28,True,False,True,True,False,False,RIGHT,RIGHT,1620,1619
200,320,210,320,290,280,UP,RIGHT,130,120,28,True,False,True,True,False,False,RIGHT,RIGHT,1620,1619
210,320,220,320,290,280,UP,RIGHT,120,110,28,True,False,True,True,False,False,RIGHT,RIGHT,1619,1618
210,320,220,320,290,280,UP,RIGHT,120,110,28,True,False,True,True,False,False,RIGHT,RIGHT,1619,1618
220,320,230,320,290,280,UP,RIGHT,110,100,28,True,False,True,True,False,False,RIGHT,RIGHT,1618,1617
220,320,230,320,290,280,UP,RIGHT,110,100,28,True,False,True,True,False,False,RIGHT,RIGHT,1618,1617
230,320,240,320,290,280,UP,RIGHT,100,90,28,True,False,True,True,False,False,RIGHT,RIGHT,1617,1616
230,320,240,320,290,280,UP,RIGHT,100,90,28,True,False,True,True,False,False,RIGHT,RIGHT,1617,1616
240,320,250,320,290,280,UP,RIGHT,90,80,28,True,False,True,True,False,False,RIGHT,RIGHT,1616,1615
240,320,250,320,290,280,UP,RIGHT,90,80,28,True,False,True,True,False,False,RIGHT,RIGHT,1616,1615
250,320,260,320,290,280,UP,RIGHT,80,70,28,True,False,True,True,False,False,RIGHT,RIGHT,1615,1614
250,320,260,320,290,280,UP,RIGHT,80,70,28,True,False,True,True,False,False,RIGHT,RIGHT,1615,1614
260,320,270,320,290,280,UP,RIGHT,70,60,28,True,False,True,True,False,False,RIGHT,RIGHT,1614,1613
260,320,270,320,290,280,UP,RIGHT,70,60,28,True,False,True,True,False,False,RIGHT,RIGHT,1614,1613
270,320,280,320,290,280,UP,RIGHT,60,50,28,True,False,True,True,False,False,RIGHT,RIGHT,1613,1612
270,320,280,320,290,280,UP,RIGHT,60,50,28,True,False,True,True,False,False,RIGHT,RIGHT,1613,1612
280,320,290,320,290,280,UP,RIGHT,50,40,28,True,False,True,True,False,False,RIGHT,RIGHT,1612,1611
280,320,290,320,290,280,UP,RIGHT,50,40,28,True,False,True,True,False,False,RIGHT,RIGHT,1612,1611
290,320,290,310,290,280,UP,EQUAL,40,30,28,True,False,True,True,False,False,RIGHT,UP,1611,1610
290,320,290,310,290,280,UP,EQUAL,40,30,28,True,False,True,True,True,False,UP,UP,1611,1610
290,310,290,300,290,280,UP,EQUAL,30,20,28,True,True,True,False,True,False,UP,UP,1610,1609
290,310,290,300,290,280,UP,EQUAL,30,20,28,True,True,True,False,True,False,UP,UP,1610,1609
290,300,290,290,290,280,UP,EQUAL,20,10,28,True,True,True,False,True,False,UP,UP,1609,1608
290,300,290,290,290,280,UP,EQUAL,20,10,28,True,True,True,False,True,False,UP,UP,1609,1608
290,290,290,280,290,280,UP,EQUAL,10,0,28,True,True,True,False,True,False,UP,UP,1608,1708
290,290,290,280,290,280,UP,EQUAL,10,0,28,True,True,True,False,True,False,UP,UP,1608,1708
290,280,290,270,270,350,EQUAL,EQUAL,90,100,29,True,True,True,False,True,False,UP,UP,1708,1707
290,280,290,270,270,350,EQUAL,EQUAL,90,100,29,True,True,True,False,True,False,UP,UP,1708,1707
290,270,290,260,270,350,DOWN,LEFT,100,110,29,True,True,True,False,True,False,UP,UP,1707,1706
290,270,290,260,270,350,DOWN,LEFT,100,110,29,True,True,True,False,True,False,UP,UP,1707,1706
290,260,290,250,270,350,DOWN,LEFT,110,120,29,True,True,True,False,True,False,UP,UP,1706,1705
290,260,290,250,270,350,DOWN,LEFT,110,120,29,True,True,True,False,True,False,UP,UP,1706,1705
290,250,290,240,270,350,DOWN,LEFT,120,130,29,True,True,True,False,True,False,UP,UP,1705,1704
290,250,290,240,270,350,DOWN,LEFT,120,130,29,True,True,True,False,True,False,UP,UP,1705,1704
290,240,290,230,270,350,DOWN,LEFT,130,140,29,True,True,True,False,True,False,UP,UP,1704,1703
290,240,290,230,270,350,DOWN,LEFT,130,140,29,True,True,True,False,True,False,UP,UP,1704,1703
290,230,290,220,270,350,DOWN,LEFT,140,150,29,True,True,True,False,True,False,UP,UP,1703,1702
290,230,290,220,270,350,DOWN,LEFT,140,150,29,True,True,True,False,True,False,UP,UP,1703,1702
290,220,290,210,270,350,DOWN,LEFT,150,160,29,True,True,True,False,True,False,UP,UP,1702,1701
290,220,290,210,270,350,DOWN,LEFT,150,160,29,True,True,True,False,True,False,UP,UP,1702,1701
290,210,280,210,270,350,DOWN,LEFT,160,150,29,True,True,True,False,True,False,UP,LEFT,1701,1700
290,210,280,210,270,350,DOWN,LEFT,160,150,29,True,True,True,False,True,False,LEFT,LEFT,1701,1700
280,210,280,220,270,350,DOWN,LEFT,150,140,29,False,True,True,True,True,True,LEFT,DOWN,1700,1699
280,210,280,220,270,350,DOWN,LEFT,150,140,29,False,True,True,True,True,True,DOWN,DOWN,1700,1699
280,220,280,230,270,350,DOWN,LEFT,140,130,29,False,True,False,True,True,True,DOWN,DOWN,1699,1698
280,220,280,230,270,350,DOWN,LEFT,140,130,29,False,True,False,True,True,True,DOWN,DOWN,1699,1698
280,230,280,240,270,350,DOWN,LEFT,130,120,29,False,True,False,True,True,True,DOWN,DOWN,1698,1697
280,230,280,240,270,350,DOWN,LEFT,130,120,29,False,True,False,True,True,True,DOWN,DOWN,1698,1697
280,240,280,250,270,350,DOWN,LEFT,120,110,29,False,True,False,True,True,True,DOWN,DOWN,1697,1696
280,240,280,250,270,350,DOWN,LEFT,120,110,29,False,True,False,True,True,True,DOWN,DOWN,1697,1696
280,250,280,260,270,350,DOWN,LEFT,110,100,29,False,True,False,True,True,True,DOWN,DOWN,1696,1695
280,250,280,260,270,350,DOWN,LEFT,110,100,29,False,True,False,True,True,True,DOWN,DOWN,1696,1695
280,260,280,270,270,350,DOWN,LEFT,100,90,29,False,True,False,True,True,True,DOWN,DOWN,1695,1694
280,260,280,270,270,350,DOWN,LEFT,100,90,29,False,True,False,True,True,True,DOWN,DOWN,1695,1694
280,270,280,280,270,350,DOWN,LEFT,90,80,29,False,True,False,True,True,True,DOWN,DOWN,1694,1693
280,270,280,280,270,350,DOWN,LEFT,90,80,29,False,True,False,True,True,True,DOWN,DOWN,1694,1693
280,280,280,290,270,350,DOWN,LEFT,80,70,29,False,True,False,True,True,True,DOWN,DOWN,1693,1692
280,280,280,290,270,350,DOWN,LEFT,80,70,29,False,True,False,True,True,True,DOWN,DOWN,1693,1692
280,290,280,300,270,350,DOWN,LEFT,70,60,29,False,True,False,True,True,True,DOWN,DOWN,1692,1691
280,290,280,300,270,350,DOWN,LEFT,70,60,29,False,True,False,True,True,True,DOWN,DOWN,1692,1691
280,300,280,310,270,350,DOWN,LEFT,60,50,29,False,True,False,True,True,True,DOWN,DOWN,1691,1690
280,300,280,310,270,350,DOWN,LEFT,60,50,29,False,True,False,True,True,True,DOWN,DOWN,1691,1690
280,310,280,320,270,350,DOWN,LEFT,50,40,29,False,True,False,False,True,True,DOWN,DOWN,1690,0
280,310,280,320,270,350,DOWN,LEFT,50,40,29,False,True,False,False,True,True,DOWN,DOWN,1690,0
110,50,120,50,70,40,UP,LEFT,50,60,3,True,False,True,True,False,False,RIGHT,RIGHT,-1,-2
110,50,120,50,70,40,UP,LEFT,50,60,3,True,False,True,True,False,False,RIGHT,RIGHT,-1,-2
120,50,130,50,70,40,UP,LEFT,60,70,3,True,False,True,True,False,False,RIGHT,RIGHT,-2,-3
120,50,130,50,70,40,UP,LEFT,60,70,3,True,False,True,True,False,False,RIGHT,RIGHT,-2,-3
130,50,140,50,70,40,UP,LEFT,70,80,3,True,False,True,True,False,False,RIGHT,RIGHT,-3,-4
130,50,140,50,70,40,UP,LEFT,70,80,3,True,False,True,True,False,False,RIGHT,RIGHT,-3,-4
140,50,150,50,70,40,UP,LEFT,80,90,3,True,False,True,True,False,False,RIGHT,RIGHT,-4,-5
140,50,150,50,70,40,UP,LEFT,80,90,3,True,False,True,True,False,False,RIGHT,RIGHT,-4,-5
150,50,160,50,70,40,UP,LEFT,90,100,3,True,False,True,True,False,False,RIGHT,RIGHT,-5,-6
150,50,160,50,70,40,UP,LEFT,90,100,3,True,False,True,True,False,False,RIGHT,RIGHT,-5,-6
160,50,170,50,70,40,UP,LEFT,100,110,3,True,False,True,True,False,False,RIGHT,RIGHT,-6,-7
160,50,170,50,70,40,UP,LEFT,100,110,3,True,False,True,True,False,False,RIGHT,RIGHT,-6,-7
170,50,180,50,70,40,UP,LEFT,110,120,3,True,False,True,True,False,False,RIGHT,RIGHT,-7,-8
170,50,180,50,70,40,UP,LEFT,110,120,3,True,False,True,True,False,False,RIGHT,RIGHT,-7,-8
180,50,190,50,70,40,UP,LEFT,120,130,3,True,False,True,True,False,False,RIGHT,RIGHT,-8,-9
180,50,190,50,70,40,UP,LEFT,120,130,3,True,False,True,True,False,False,RIGHT,RIGHT,-8,-9
190,50,200,50,70,40,UP,LEFT,130,140,3,True,False,True,True,False,False,RIGHT,RIGHT,-9,-10
190,50,200,50,70,40,UP,LEFT,130,140,3,True,False,True,True,False,False,RIGHT,RIGHT,-9,-10
200,50,210,50,70,40,UP,LEFT,140,150,3,True,False,True,True,False,False,RIGHT,RIGHT,-10,-11
200,50,210,50,70,40,UP,LEFT,140,150,3,True,False,True,True,False,False,RIGHT,RIGHT,-10,-11
210,50,210,40,70,40,UP,LEFT,150,140,3,True,False,True,True,False,False,RIGHT,UP,-11,-12
210,50,210,40,70,40,UP,LEFT,150,140,3,True,False,True,True,False,False,UP,UP,-11,-12
210,40,200,40,70,40,EQUAL,LEFT,140,130,3,True,True,True,False,False,False,UP,LEFT,-12,-13
210,40,200,40,70,40,EQUAL,LEFT,140,130,3,True,True,True,False,False,False,LEFT,LEFT,-12,-13
200,40,190,40,70,40,EQUAL,LEFT,130,120,3,False,True,True,False,False,False,LEFT,LEFT,-13,-14
200,40,190,40,70,40,EQUAL,LEFT,130,120,3,False,True,True,False,False,False,LEFT,LEFT,-13,-14
190,40,180,40,70,40,EQUAL,LEFT,120,110,3,False,True,True,True,False,False,LEFT,LEFT,-14,-15
190,40,180,40,70,40,EQUAL,LEFT,120,110,3,False,True,True,True,False,False,LEFT,LEFT,-14,-15
180,40,170,40,70,40,EQUAL,LEFT,110,100,3,False,True,True,True,False,False,LEFT,LEFT,-15,-16
180,40,170,40,70,40,EQUAL,LEFT,110,100,3,False,True,True,True,False,False,LEFT,LEFT,-15,-16
170,40,160,40,70,40,EQUAL,LEFT,100,90,3,False,True,True,True,False,False,LEFT,LEFT,-16,-17
170,40,160,40,70,40,EQUAL,LEFT,100,90,3,False,True,True,True,False,False,LEFT,LEFT,-16,-17
160,40,150,40,70,40,EQUAL,LEFT,90,80,3,False,True,True,True,False,False,LEFT,LEFT,-17,-18
160,40,150,40,70,40,EQUAL,LEFT,90,80,3,False,True,True,True,False,False,LEFT,LEFT,-17,-18
150,40,140,40,70,40,EQUAL,LEFT,80,70,3,False,True,True,True,False,False,LEFT,LEFT,-18,-19
150,40,140,40,70,40,EQUAL,LEFT,80,70,3,False,True,True,True,False,False,LEFT,LEFT,-18,-19
140,40,130,40,70,40,EQUAL,LEFT,70,60,3,False,True,True,True,False,False,LEFT,LEFT,-19,-20
140,40,130,40,70,40,EQUAL,LEFT,70,60,3,False,True,True,True,False,False,LEFT,LEFT,-19,-20
130,40,120,40,70,40,EQUAL,LEFT,60,50,3,False,True,True,True,False,False,LEFT,LEFT,-20,-21
130,40,120,40,70,40,EQUAL,LEFT,60,50,3,False,True,True,True,False,False,LEFT,LEFT,-20,-21
120,40,110,40,70,40,EQUAL,LEFT,50,40,3,False,True,True,True,False,False,LEFT,LEFT,-21,-22
120,40,110,40,70,40,EQUAL,LEFT,50,40,3,False,True,True,True,False,False,LEFT,LEFT,-21,-22
110,40,100,40,70,40,EQUAL,LEFT,40,30,3,False,True,True,True,False,False,LEFT,LEFT,-22,-23
110,40,100,40,70,40,EQUAL,LEFT,40,30,3,False,True,True,True,False,False,LEFT,LEFT,-22,-23
100,40,90,40,70,40,EQUAL,LEFT,30,20,3,False,True,True,True,False,False,LEFT,LEFT,-23,-24
100,40,90,40,70,40,EQUAL,LEFT,30,20,3,False,True,True,True,False,False,LEFT,LEFT,-23,-24
90,40,80,40,70,40,EQUAL,LEFT,20,10,3,False,True,True,True,False,False,LEFT,LEFT,-24,-25
90,40,80,40,70,40,EQUAL,LEFT,20,10,3,False,True,True,True,False,False,LEFT,LEFT,-24,-25
80,40,70,40,70,40,EQUAL,LEFT,10,0,3,False,True,True,True,False,False,LEFT,LEFT,-25,75
80,40,70,40,70,40,EQUAL,LEFT,10,0,3,False,True,True,True,False,False,LEFT,LEFT,-25,75
70,40,60,40,250,450,EQUAL,EQUAL,590,600,4,False,True,True,True,False,False,LEFT,LEFT,75,74
70,40,60,40,250,450,EQUAL,EQUAL,590,600,4,False,True,True,True,False,False,LEFT,LEFT,75,74
60,40,60,50,250,450,DOWN,RIGHT,600,590,4,False,True,True,True,False,False,LEFT,DOWN,74,73
60,40,60,50,250,450,DOWN,RIGHT,600,590,4,False,True,True,True,True,False,DOWN,DOWN,74,73
60,50,60,60,250,450,DOWN,RIGHT,590,580,4,True,True,False,True,True,False,DOWN,DOWN,73,72
60,50,60,60,250,450,DOWN,RIGHT,590,580,4,True,True,False,True,True,False,DOWN,DOWN,73,72
60,60,60,70,250,450,DOWN,RIGHT,580,570,4,True,True,False,True,True,False,DOWN,DOWN,72,71
60,60,60,70,250,450,DOWN,RIGHT,580,570,4,True,True,False,True,True,False,DOWN,DOWN,72,71
60,70,60,80,250,450,DOWN,RIGHT,570,560,4,True,True,False,True,True,False,DOWN,DOWN,71,70
60,70,60,80,250,450,DOWN,RIGHT,570,560,4,True,True,False,True,True,False,DOWN,DOWN,71,70
60,80,60,90,250,450,DOWN,RIGHT,560,550,4,True,True,False,True,True,False,DOWN,DOWN,70,69
60,80,60,90,250,450,DOWN,RIGHT,560,550,4,True,True,False,True,True,False,DOWN,DOWN,70,69
60,90,60,100,250,450,DOWN,RIGHT,550,540,4,True,True,False,True,True,False,DOWN,DOWN,69,68
60,90,60,100,250,450,DOWN,RIGHT,550,540,4,True,True,False,True,True,False,DOWN,DOWN,69,68
60,100,60,110,250,450,DOWN,RIGHT,540,530,4,True,True,False,True,True,False,DOWN,DOWN,68,67
60,100,60,110,250,450,DOWN,RIGHT,540,530,4,True,True,False,True,True,False,DOWN,DOWN,68,67
60,110,60,120,250,450,DOWN,RIGHT,530,520,4,True,True,False,True,True,False,DOWN,DOWN,67,66
60,110,60,120,250,450,DOWN,RIGHT,530,520,4,True,True,False,True,True,False,DOWN,DOWN,67,66
60,120,60,130,250,450,DOWN,RIGHT,520,510,4,True,True,False,True,True,False,DOWN,DOWN,66,65
60,120,60,130,250,450,DOWN,RIGHT,520,510,4,True,True,False,True,True,False,DOWN,DOWN,66,65
60,130,60,140,250,450,DOWN,RIGHT,510,500,4,True,True,False,True,True,False,DOWN,DOWN,65,64
60,130,60,140,250,450,DOWN,RIGHT,510,500,4,True,True,False,True,True,False,DOWN,DOWN,65,64
60,140,60,150,250,450,DOWN,RIGHT,500,490,4,True,True,False,True,True,False,DOWN,DOWN,64,63
60,140,60,150,250,450,DOWN,RIGHT,500,490,4,True,True,False,True,True,False,DOWN,DOWN,64,63
60,150,60,160,250,450,DOWN,RIGHT,490,480,4,True,True,False,True,True,False,DOWN,DOWN,63,62
60,150,60,160,250,450,DOWN,RIGHT,490,480,4,True,True,False,True,True,False,DOWN,DOWN,63,62
60,160,60,170,250,450,DOWN,RIGHT,480,470,4,True,True,False,True,True,False,DOWN,DOWN,62,61
60,160,60,170,250,450,DOWN,RIGHT,480,470,4,True,True,False,True,True,False,DOWN,DOWN,62,61
60,170,60,180,250,450,DOWN,RIGHT,470,460,4,True,True,False,True,True,False,DOWN,DOWN,61,60
60,170,60,180,250,450,DOWN,RIGHT,470,460,4,True,True,False,True,True,False,DOWN,DOWN,61,60
60,180,70,180,250,450,DOWN,RIGHT,460,450,4,True,True,False,True,True,False,DOWN,RIGHT,60,59
60,180,70,180,250,450,DOWN,RIGHT,460,450,4,True,True,False,True,True,False,RIGHT,RIGHT,60,59
70,180,80,180,250,450,DOWN,RIGHT,450,440,4,True,False,True,True,True,False,RIGHT,RIGHT,59,58
70,180,80,180,250,450,DOWN,RIGHT,450,440,4,True,False,True,True,True,False,RIGHT,RIGHT,59,58
80,180,90,180,250,450,DOWN,RIGHT,440,430,4,True,False,True,True,True,False,RIGHT,RIGHT,58,57
80,180,90,180,250,450,DOWN,RIGHT,440,430,4,True,False,True,True,True,False,RIGHT,RIGHT,58,57
90,180,100,180,250,450,DOWN,RIGHT,430,420,4,True,False,True,True,True,False,RIGHT,RIGHT,57,56
90,180,100,180,250,450,DOWN,RIGHT,430,420,4,True,False,True,True,True,False,RIGHT,RIGHT,57,56
100,180,110,180,250,450,DOWN,RIGHT,420,410,4,True,False,True,True,True,False,RIGHT,RIGHT,56,55
100,180,110,180,250,450,DOWN,RIGHT,420,410,4,True,False,True,True,True,False,RIGHT,RIGHT,56,55
110,180,120,180,250,450,DOWN,RIGHT,410,400,4,True,False,True,True,True,False,RIGHT,RIGHT,55,54
110,180,120,180,250,450,DOWN,RIGHT,410,400,4,True,False,True,True,True,False,RIGHT,RIGHT,55,54
120,180,130,180,250,450,DOWN,RIGHT,400,390,4,True,False,True,True,True,False,RIGHT,RIGHT,54,53
120,180,130,180,250,450,DOWN,RIGHT,400,390,4,True,False,True,True,True,False,RIGHT,RIGHT,54,53
130,180,140,180,250,450,DOWN,RIGHT,390,380,4,True,False,True,True,True,False,RIGHT,RIGHT,53,52
130,180,140,180,250,450,DOWN,RIGHT,390,380,4,True,False,True,True,True,False,RIGHT,RIGHT,53,52
140,180,150,180,250,450,DOWN,RIGHT,380,370,4,True,False,True,True,True,False,RIGHT,RIGHT,52,51
140,180,150,180,250,450,DOWN,RIGHT,380,370,4,True,False,True,True,True,False,RIGHT,RIGHT,52,51
150,180,160,180,250,450,DOWN,RIGHT,370,360,4,True,False,True,True,True,False,RIGHT,RIGHT,51,50
150,180,160,180,250,450,DOWN,RIGHT,370,360,4,True,False,True,True,True,False,RIGHT,RIGHT,51,50
160,180,170,180,250,450,DOWN,RIGHT,360,350,4,True,False,True,True,True,False,RIGHT,RIGHT,50,49
160,180,170,180,250,450,DOWN,RIGHT,360,350,4,True,False,True,True,True,False,RIGHT,RIGHT,50,49
170,180,180,180,250,450,DOWN,RIGHT,350,340,4,True,False,True,True,True,False,RIGHT,RIGHT,49,48
170,180,180,180,250,450,DOWN,RIGHT,350,340,4,True,False,True,True,True,False,RIGHT,RIGHT,49,48
180,180,190,180,250,450,DOWN,RIGHT,340,330,4,True,False,True,True,True,False,RIGHT,RIGHT,48,47
180,180,190,180,250,450,DOWN,RIGHT,340,330,4,True,False,True,True,True,False,RIGHT,RIGHT,48,47
190,180,200,180,250,450,DOWN,RIGHT,330,320,4,True,False,True,True,True,False,RIGHT,RIGHT,47,46
190,180,200,180,250,450,DOWN,RIGHT,330,320,4,True,False,True,True,True,False,RIGHT,RIGHT,47,46
200,180,210,180,250,450,DOWN,RIGHT,320,310,4,True,False,True,True,True,False,RIGHT,RIGHT,46,45
200,180,210,180,250,450,DOWN,RIGHT,320,310,4,True,False,True,True,True,False,RIGHT,RIGHT,46,45
210,180,220,180,250,450,DOWN,RIGHT,310,300,4,True,False,True,True,True,False,RIGHT,RIGHT,45,44
210,180,220,180,250,450,DOWN,RIGHT,310,300,4,True,False,True,True,True,False,RIGHT,RIGHT,45,44
220,180,230,180,250,450,DOWN,RIGHT,300,290,4,True,False,True,True,True,False,RIGHT,RIGHT,44,43
220,180,230,180,250,450,DOWN,RIGHT,300,290,4,True,False,True,True,True,False,RIGHT,RIGHT,44,43
230,180,230,190,250,450,DOWN,RIGHT,290,280,4,True,False,True,True,True,False,RIGHT,DOWN,43,42
230,180,230,190,250,450,DOWN,RIGHT,290,280,4,True,False,True,True,False,False,DOWN,DOWN,43,42
230,190,230,200,250,450,DOWN,RIGHT,280,270,4,True,True,False,True,False,False,DOWN,DOWN,42,41
230,190,230,200,250,450,DOWN,RIGHT,280,270,4,True,True,False,True,False,False,DOWN,DOWN,42,41
230,200,230,210,250,450,DOWN,RIGHT,270,260,4,True,True,False,True,False,False,DOWN,DOWN,41,40
230,200,230,210,250,450,DOWN,RIGHT,270,260,4,True,True,False,True,False,False,DOWN,DOWN,41,40
230,210,230,220,250,450,DOWN,RIGHT,260,250,4,True,True,False,True,False,False,DOWN,DOWN,40,39
230,210,230,220,250,450,DOWN,RIGHT,260,250,4,True,True,False,True,False,False,DOWN,DOWN,40,39
230,220,230,230,250,450,DOWN,RIGHT,250,240,4,True,True,False,True,False,False,DOWN,DOWN,39,38
230,220,230,230,250,450,DOWN,RIGHT,250,240,4,True,True,False,True,False,False,DOWN,DOWN,39,38
230,230,230,240,250,450,DOWN,RIGHT,240,230,4,True,True,False,True,False,False,DOWN,DOWN,38,37
230,230,230,240,250,450,DOWN,RIGHT,240,230,4,True,True,False,True,False,False,DOWN,DOWN,38,37
230,240,230,250,250,450,DOWN,RIGHT,230,220,4,True,True,False,True,False,False,DOWN,DOWN,37,36
230,240,230,250,250,450,DOWN,RIGHT,230,220,4,True,True,False,True,False,False,DOWN,DOWN,37,36
230,250,230,260,250,450,DOWN,RIGHT,220,210,4,True,True,False,True,False,False,DOWN,DOWN,36,35
230,250,230,260,250,450,DOWN,RIGHT,220,210,4,True,True,False,True,False,False,DOWN,DOWN,36,35
230,260,240,260,250,450,DOWN,RIGHT,210,200,4,True,True,False,True,False,False,DOWN,RIGHT,35,34
230,260,240,260,250,450,DOWN,RIGHT,210,200,4,True,True,False,True,False,False,RIGHT,RIGHT,35,34
240,260,250,260,250,450,DOWN,RIGHT,200,190,4,True,False,True,True,False,False,RIGHT,RIGHT,34,33
240,260,250,260,250,450,DOWN,RIGHT,200,190,4,True,False,True,True,False,False,RIGHT,RIGHT,34,33
250,260,250,270,250,450,DOWN,EQUAL,190,180,4,True,False,True,True,False,False,RIGHT,DOWN,33,32
250,260,250,270,250,450,DOWN,EQUAL,190,180,4,True,False,True,True,False,False,DOWN,DOWN,33,32
250,270,250,280,250,450,DOWN,EQUAL,180,170,4,True,True,False,True,False,False,DOWN,DOWN,32,31
250,270,250,280,250,450,DOWN,EQUAL,180,170,4,True,True,False,True,False,False,DOWN,DOWN,32,31
250,280,250,290,250,450,DOWN,EQUAL,170,160,4,True,True,False,True,False,False,DOWN,DOWN,31,30
250,280,250,290,250,450,DOWN,EQUAL,170,160,4,True,True,False,True,False,False,DOWN,DOWN,31,30
250,290,250,300,250,450,DOWN,EQUAL,160,150,4,True,True,False,True,False,False,DOWN,DOWN,30,29
250,290,250,300,250,450,DOWN,EQUAL,160,150,4,True,True,False,True,False,False,DOWN,DOWN,30,29
250,300,250,310,250,450,DOWN,EQUAL,150,140,4,True,True,False,True,False,False,DOWN,DOWN,29,28
250,300,250,310,250,450,DOWN,EQUAL,150,140,4,True,True,False,True,False,False,DOWN,DOWN,29,28
250,310,250,320,250,450,DOWN,EQUAL,140,130,4,True,True,False,True,False,False,DOWN,DOWN,28,27
250,310,250,320,250,450,DOWN,EQUAL,140,130,4,True,True,False,True,False,False,DOWN,DOWN,28,27
250,320,250,330,250,450,DOWN,EQUAL,130,120,4,True,True,False,True,False,False,DOWN,DOWN,27,26
250,320,250,330,250,450,DOWN,EQUAL,130,120,4,True,True,False,True,False,False,DOWN,DOWN,27,26
250,330,250,340,250,450,DOWN,EQUAL,120,110,4,True,True,False,True,False,False,DOWN,DOWN,26,25
250,330,250,340,250,450,DOWN,EQUAL,120,110,4,True,True,False,True,False,False,DOWN,DOWN,26,25
250,340,250,350,250,450,DOWN,EQUAL,110,100,4,True,True,False,True,False,False,DOWN,DOWN,25,24
250,340,250,350,250,450,DOWN,EQUAL,110,100,4,True,True,False,True,False,False,DOWN,DOWN,25,24
250,350,250,360,250,450,DOWN,EQUAL,100,90,4,True,True,False,True,False,False,DOWN,DOWN,24,23
250,350,250,360,250,450,DOWN,EQUAL,100,90,4,True,True,False,True,False,False,DOWN,DOWN,24,23
250,360,250,370,250,450,DOWN,EQUAL,90,80,4,True,True,False,True,False,False,DOWN,DOWN,23,22
250,360,250,370,250,450,DOWN,EQUAL,90,80,4,True,True,False,True,False,False,DOWN,DOWN,23,22
250,370,250,380,250,450,DOWN,EQUAL,80,70,4,True,True,False,True,False,False,DOWN,DOWN,22,21
250,370,250,380,250,450,DOWN,EQUAL,80,70,4,True,True,False,True,False,False,DOWN,DOWN,22,21
250,380,250,390,250,450,DOWN,EQUAL,70,60,4,True,True,False,True,False,False,DOWN,DOWN,21,20
250,380,250,390,250,450,DOWN,EQUAL,70,60,4,True,True,False,True,False,False,DOWN,DOWN,21,20
250,390,250,400,250,450,DOWN,EQUAL,60,50,4,True,True,False,True,False,False,DOWN,DOWN,20,19
250,390,250,400,250,450,DOWN,EQUAL,60,50,4,True,True,False,True,False,False,DOWN,DOWN,20,19
250,400,250,410,250,450,DOWN,EQUAL,50,40,4,True,True,False,True,False,False,DOWN,DOWN,19,18
250,400,250,410,250,450,DOWN,EQUAL,50,40,4,True,True,False,True,False,False,DOWN,DOWN,19,18
250,410,250,420,250,450,DOWN,EQUAL,40,30,4,True,True,False,True,False,False,DOWN,DOWN,18,17
250,410,250,420,250,450,DOWN,EQUAL,40,30,4,True,True,False,True,False,False,DOWN,DOWN,18,17
250,420,250,430,250,450,DOWN,EQUAL,30,20,4,True,True,False,True,False,False,DOWN,DOWN,17,16
250,420,250,430,250,450,DOWN,EQUAL,30,20,4,True,True,False,True,False,False,DOWN,DOWN,17,16
250,430,250,440,250,450,DOWN,EQUAL,20,10,4,True,True,False,True,False,False,DOWN,DOWN,16,15
250,430,250,440,250,450,DOWN,EQUAL,20,10,4,True,True,False,True,False,False,DOWN,DOWN,16,15
250,440,250,450,250,450,DOWN,EQUAL,10,0,4,True,True,False,True,False,False,DOWN,DOWN,15,115
250,440,250,450,250,450,DOWN,EQUAL,10,0,4,True,True,False,True,False,False,DOWN,DOWN,15,115
250,450,240,450,460,190,EQUAL,EQUAL,470,480,5,True,True,False,True,False,False,DOWN,LEFT,115,114
250,450,240,450,460,190,EQUAL,EQUAL,470,480,5,True,True,False,True,False,False,LEFT,LEFT,115,114
240,450,230,450,460,190,UP,RIGHT,480,490,5,False,True,True,True,False,False,LEFT,LEFT,114,113
240,450,230,450,460,190,UP,RIGHT,480,490,5,False,True,True,True,False,False,LEFT,LEFT,114,113
230,450,220,450,460,190,UP,RIGHT,490,500,5,False,True,True,True,False,False,LEFT,LEFT,113,112
230,450,220,450,460,190,UP,RIGHT,490,500,5,False,True,True,True,False,False,LEFT,LEFT,113,112
220,450,210,450,460,190,UP,RIGHT,500,510,5,False,True,True,True,False,False,LEFT,LEFT,112,111
220,450,210,450,460,190,UP,RIGHT,500,510,5,False,True,True,True,False,False,LEFT,LEFT,112,111
210,450,200,450,460,190,UP,RIGHT,510,520,5,False,True,True,True,False,False,LEFT,LEFT,111,110
210,450,200,450,460,190,UP,RIGHT,510,520,5,False,True,True,True,False,False,LEFT,LEFT,111,110
200,450,200,440,460,190,UP,RIGHT,520,510,5,False,True,True,True,False,False,LEFT,UP,110,109
200,450,200,440,460,190,UP,RIGHT,520,510,5,False,True,True,True,True,False,UP,UP,110,109
200,440,200,430,460,190,UP,RIGHT,510,500,5,True,True,True,False,True,False,UP,UP,109,108
200,440,200,430,460,190,UP,RIGHT,510,500,5,True,True,True,False,True,False,UP,UP,109,108
200,430,200,420,460,190,UP,RIGHT,500,490,5,True,True,True,False,True,False,UP,UP,108,107
200,430,200,420,460,190,UP,RIGHT,500,490,5,True,True,True,False,True,False,UP,UP,108,107
200,420,210,420,460,190,UP,RIGHT,490,480,5,True,True,True,False,True,False,UP,RIGHT,107,106
200,420,210,420,460,190,UP,RIGHT,490,480,5,True,True,True,False,True,False,RIGHT,RIGHT,107,106
210,420,220,420,460,190,UP,RIGHT,480,470,5,True,False,True,True,True,False,RIGHT,RIGHT,106,105
210,420,220,420,460,190,UP,RIGHT,480,470,5,True,False,True,True,True,False,RIGHT,RIGHT,106,105
220,420,230,420,460,190,UP,RIGHT,470,460,5,True,False,True,True,True,False,RIGHT,RIGHT,105,104
220,420,230,420,460,190,UP,RIGHT,470,460,5,True,False,True,True,True,False,RIGHT,RIGHT,105,104
230,420,240,420,460,190,UP,RIGHT,460,450,5,True,False,True,True,True,False,RIGHT,RIGHT,104,103
230,420,240,420,460,190,UP,RIGHT,460,450,5,True,False,True,True,True,False,RIGHT,RIGHT,104,103
240,420,250,420,460,190,UP,RIGHT,450,440,5,True,False,True,True,True,False,RIGHT,RIGHT,103,102
240,420,250,420,460,190,UP,RIGHT,450,440,5,True,False,True,True,True,False,RIGHT,RIGHT,103,102
250,420,260,420,460,190,UP,RIGHT,440,430,5,True,False,True,True,True,False,RIGHT,RIGHT,102,101
250,420,260,420,460,190,UP,RIGHT,440,430,5,True,False,True,True,True,False,RIGHT,RIGHT,102,101
260,420,270,420,460,190,UP,RIGHT,430,420,5,True,False,True,True,True,False,RIGHT,RIGHT,101,100
260,420,270,420,460,190,UP,RIGHT,430,420,5,True,False,True,True,True,False,RIGHT,RIGHT,101,100
270,420,280,420,460,190,UP,RIGHT,420,410,5,True,False,True,True,True,False,RIGHT,RIGHT,100,99
270,420,280,420,460,190,UP,RIGHT,420,410,5,True,False,True,True,True,False,RIGHT,RIGHT,100,99
280,420,290,420,460,190,UP,RIGHT,410,400,5,True,False,True,True,True,False,RIGHT,RIGHT,99,98
280,420,290,420,460,190,UP,RIGHT,410,400,5,True,False,True,True,True,False,RIGHT,RIGHT,99,98
290,420,300,420,460,190,UP,RIGHT,400,390,5,True,False,True,True,True,False,RIGHT,RIGHT,98,97
290,420,300,420,460,190,UP,RIGHT,400,390,5,True,False,True,True,True,False,RIGHT,RIGHT,98,97
300,420,310,420,460,190,UP,RIGHT,390,380,5,True,False,True,True,True,False,RIGHT,RIGHT,97,96
300,420,310,420,460,190,UP,RIGHT,390,380,5,True,False,True,True,True,False,RIGHT,RIGHT,97,96
310,420,320,420,460,190,UP,RIGHT,380,370,5,True,False,True,True,True,False,RIGHT,RIGHT,96,95
310,420,320,420,460,190,UP,RIGHT,380,370,5,True,False,True,True,True,False,RIGHT,RIGHT,96,95
320,420,330,420,460,190,UP,RIGHT,370,360,5,True,False,True,True,True,False,RIGHT,RIGHT,95,94
320,420,330,420,460,190,UP,RIGHT,370,360,5,True,False,True,True,True,False,RIGHT,RIGHT,95,94
330,420,340,420,460,190,UP,RIGHT,360,350,5,True,False,True,True,True,False,RIGHT,RIGHT,94,93
330,420,340,420,460,190,UP,RIGHT,360,350,5,True,False,True,True,True,False,RIGHT,RIGHT,94,93
340,420,350,420,460,190,UP,RIGHT,350,340,5,True,False,True,True,True,False,RIGHT,RIGHT,93,92
340,420,350,420,460,190,UP,RIGHT,350,340,5,True,False,True,True,True,False,RIGHT,RIGHT,93,92
350,420,360,420,460,190,UP,RIGHT,340,330,5,True,False,True,True,True,False,RIGHT,RIGHT,92,91
350,420,360,420,460,190,UP,RIGHT,340,330,5,True,False,True,True,True,False,RIGHT,RIGHT,92,91
360,420,370,420,460,190,UP,RIGHT,330,320,5,True,False,True,True,True,False,RIGHT,RIGHT,91,90
360,420,370,420,460,190,UP,RIGHT,330,320,5,True,False,True,True,True,False,RIGHT,RIGHT,91,90
370,420,380,420,460,190,UP,RIGHT,320,310,5,True,False,True,True,True,False,RIGHT,RIGHT,90,89
370,420,380,420,460,190,UP,RIGHT,320,310,5,True,False,True,True,True,False,RIGHT,RIGHT,90,89
380,420,390,420,460,190,UP,RIGHT,310,300,5,True,False,True,True,True,False,RIGHT,RIGHT,89,88
380,420,390,420,460,190,UP,RIGHT,310,300,5,True,False,True,True,True,False,RIGHT,RIGHT,89,88
390,420,400,420,460,190,UP,RIGHT,300,290,5,True,False,True,True,True,False,RIGHT,RIGHT,88,87
390,420,400,420,460,190,UP,RIGHT,300,290,5,True,False,True,True,True,False,RIGHT,RIGHT,88,87
400,420,410,420,460,190,UP,RIGHT,290,280,5,True,False,True,True,True,False,RIGHT,RIGHT,87,86
400,420,410,420,460,190,UP,RIGHT,290,280,5,True,False,True,True,True,False,RIGHT,RIGHT,87,86
410,420,420,420,460,190,UP,RIGHT,280,270,5,True,False,True,True,True,False,RIGHT,RIGHT,86,85
410,420,420,420,460,190,UP,RIGHT,280,270,5,True,False,True,True,True,False,RIGHT,RIGHT,86,85
420,420,430,420,460,190,UP,RIGHT,270,260,5,True,False,True,True,True,False,RIGHT,RIGHT,85,84
420,420,430,420,460,190,UP,RIGHT,270,260,5,True,False,True,True,True,False,RIGHT,RIGHT,85,84
430,420,440,420,460,190,UP,RIGHT,260,250,5,True,False,True,True,True,False,RIGHT,RIGHT,84,83
430,420,440,420,460,190,UP,RIGHT,260,250,5,True,False,True,True,True,False,RIGHT,RIGHT,84,83
440,420,450,420,460,190,UP,RIGHT,250,240,5,True,False,True,True,True,False,RIGHT,RIGHT,83,82
440,420,450,420,460,190,UP,RIGHT,250,240,5,True,False,True,True,True,False,RIGHT,RIGHT,83,82
450,420,450,410,460,190,UP,RIGHT,240,230,5,True,False,True,True,True,False,RIGHT,UP,82,81
450,420,450,410,460,190,UP,RIGHT,240,230,5,True,False,True,True,False,False,UP,UP,82,81
450,410,450,400,460,190,UP,RIGHT,230,220,5,True,True,True,False,False,False,UP,UP,81,80
450,410,450,400,460,190,UP,RIGHT,230,220,5,True,True,True,False,False,False,UP,UP,81,80
450,400,450,390,460,190,UP,RIGHT,220,210,5,True,True,True,False,False,False,UP,UP,80,79
450,400,450,390,460,190,UP,RIGHT,220,210,5,True,True,True,False,False,False,UP,UP,80,79
450,390,450,380,460,190,UP,RIGHT,210,200,5,True,True,True,False,False,False,UP,UP,79,78
450,390,450,380,460,190,UP,RIGHT,210,200,5,True,True,True,False,False,False,UP,UP,79,78
450,380,450,370,460,190,UP,RIGHT,200,190,5,True,True,True,False,False,False,UP,UP,78,77
450,380,450,370,460,190,UP,RIGHT,200,190,5,True,True,True,False,False,False,UP,UP,78,77
450,370,450,360,460,190,UP,RIGHT,190,180,5,True,True,True,False,False,False,UP,UP,77,76
450,370,450,360,460,190,UP,RIGHT,190,180,5,True,True,True,False,False,False,UP,UP,77,76
450,360,460,360,460,190,UP,RIGHT,180,170,5,True,True,True,False,False,False,UP,RIGHT,76,75
450,360,460,360,460,190,UP,RIGHT,180,170,5,True,True,True,False,False,False,RIGHT,RIGHT,76,75
460,360,460,350,460,190,UP,EQUAL,170,160,5,True,False,True,True,False,False,RIGHT,UP,75,74
460,360,460,350,460,190,UP,EQUAL,170,160,5,True,False,True,True,False,False,UP,UP,75,74
460,350,460,340,460,190,UP,EQUAL,160,150,5,True,True,True,False,False,False,UP,UP,74,73
460,350,460,340,460,190,UP,EQUAL,160,150,5,True,True,True,False,False,False,UP,UP,74,73
460,340,460,330,460,190,UP,EQUAL,150,140,5,True,True,True,False,False,False,UP,UP,73,72
460,340,460,330,460,190,UP,EQUAL,150,140,5,True,True,True,False,False,False,UP,UP,73,72
460,330,460,320,460,190,UP,EQUAL,140,130,5,True,True,True,False,False,False,UP,UP,72,71
460,330,460,320,460,190,UP,EQUAL,140,130,5,True,True,True,False,False,False,UP,UP,72,71
460,320,460,310,460,190,UP,EQUAL,130,120,5,True,True,True,False,False,False,UP,UP,71,70
460,320,460,310,460,190,UP,EQUAL,130,120,5,True,True,True,False,False,False,UP,UP,71,70
460,310,460,300,460,190,UP,EQUAL,120,110,5,True,True,True,False,False,False,UP,UP,70,69
460,310,460,300,460,190,UP,EQUAL,120,110,5,True,True,True,False,False,False,UP,UP,70,69
460,300,460,290,460,190,UP,EQUAL,110,100,5,True,True,True,False,False,False,UP,UP,69,68
460,300,460,290,460,190,UP,EQUAL,110,100,5,True,True,True,False,False,False,UP,UP,69,68
460,290,460,280,460,190,UP,EQUAL,100,90,5,True,True,True,False,False,False,UP,UP,68,67
460,290,460,280,460,190,UP,EQUAL,100,90,5,True,True,True,False,False,False,UP,UP,68,67
460,280,460,270,460,190,UP,EQUAL,90,80,5,True,True,True,False,False,False,UP,UP,67,66
460,280,460,270,460,190,UP,EQUAL,90,80,5,True,True,True,False,False,False,UP,UP,67,66
460,270,460,260,460,190,UP,EQUAL,80,70,5,True,True,True,False,False,False,UP,UP,66,65
460,270,460,260,460,190,UP,EQUAL,80,70,5,True,True,True,False,False,False,UP,UP,66,65
460,260,460,250,460,190,UP,EQUAL,70,60,5,True,True,True,False,False,False,UP,UP,65,64
460,260,460,250,460,190,UP,EQUAL,70,60,5,True,True,True,False,False,False,UP,UP,65,64
460,250,460,240,460,190,UP,EQUAL,60,50,5,True,True,True,False,False,False,UP,UP,64,63
460,250,460,240,460,190,UP,EQUAL,60,50,5,True,True,True,False,False,False,UP,UP,64,63
460,240,460,230,460,190,UP,EQUAL,50,40,5,True,True,True,False,False,False,UP,UP,63,62
460,240,460,230,460,190,UP,EQUAL,50,40,5,True,True,True,False,False,False,UP,UP,63,62
460,230,460,220,460,190,UP,EQUAL,40,30,5,True,True,True,False,False,False,UP,UP,62,61
460,230,460,220,460,190,UP,EQUAL,40,30,5,True,True,True,False,False,False,UP,UP,62,61
460,220,460,210,460,190,UP,EQUAL,30,20,5,True,True,True,False,False,False,UP,UP,61,60
460,220,460,210,460,190,UP,EQUAL,30,20,5,True,True,True,False,False,False,UP,UP,61,60
460,210,460,200,460,190,UP,EQUAL,20,10,5,True,True,True,False,False,False,UP,UP,60,59
460,210,460,200,460,190,UP,EQUAL,20,10,5,True,True,True,False,False,False,UP,UP,60,59
460,200,460,190,460,190,UP,EQUAL,10,0,5,True,True,True,False,False,False,UP,UP,59,159
460,200,460,190,460,190,UP,EQUAL,10,0,5,True,True,True,False,False,False,UP,UP,59,159
460,190,460,180,60,280,EQUAL,EQUAL,490,500,6,True,True,True,False,False,False,UP,UP,159,158
460,190,460,180,60,280,EQUAL,EQUAL,490,500,6,True,True,True,False,False,False,UP,UP,159,158
460,180,460,170,60,280,DOWN,LEFT,500,510,6,True,True,True,False,False,False,UP,UP,158,157
460,180,460,170,60,280,DOWN,LEFT,500,510,6,True,True,True,False,False,False,UP,UP,158,157
460,170,460,160,60,280,DOWN,LEFT,510,520,6,True,True,True,False,False,False,UP,UP,157,156
460,170,460,160,60,280,DOWN,LEFT,510,520,6,True,True,True,False,False,False,UP,UP,157,156
460,160,460,150,60,280,DOWN,LEFT,520,530,6,True,True,True,False,False,False,UP,UP,156,155
460,160,460,150,60,280,DOWN,LEFT,520,530,6,True,True,True,False,False,False,UP,UP,156,155
460,150,450,150,60,280,DOWN,LEFT,530,520,6,True,True,True,False,False,False,UP,LEFT,155,154
460,150,450,150,60,280,DOWN,LEFT,530,520,6,True,True,True,False,False,False,LEFT,LEFT,155,154
450,150,440,150,60,280,DOWN,LEFT,520,510,6,False,True,True,True,False,False,LEFT,LEFT,154,153
450,150,440,150,60,280,DOWN,LEFT,520,510,6,False,True,True,True,False,False,LEFT,LEFT,154,153
440,150,430,150,60,280,DOWN,LEFT,510,500,6,False,True,True,True,False,False,LEFT,LEFT,153,152
440,150,430,150,60,280,DOWN,LEFT,510,500,6,False,True,True,True,False,False,LEFT,LEFT,153,152
430,150,430,160,60,280,DOWN,LEFT,500,490,6,False,True,True,True,False,False,LEFT,DOWN,152,151
430,150,430,160,60,280,DOWN,LEFT,500,490,6,False,True,True,True,True,False,DOWN,DOWN,152,151
430,160,430,170,60,280,DOWN,LEFT,490,480,6,True,True,False,True,True,False,DOWN,DOWN,151,150
430,160,430,170,60,280,DOWN,LEFT,490,480,6,True,True,False,True,True,False,DOWN,DOWN,151,150
430,170,430,180,60,280,DOWN,LEFT,480,470,6,True,True,False,True,True,False,DOWN,DOWN,150,149
430,170,430,180,60,280,DOWN,LEFT,480,470,6,True,True,False,True,True,False,DOWN,DOWN,150,149
430,180,430,190,60,280,DOWN,LEFT,470,460,6,True,True,False,True,True,False,DOWN,DOWN,149,148
430,180,430,190,60,280,DOWN,LEFT,470,460,6,True,True,False,True,True,False,DOWN,DOWN,149,148
430,190,430,200,60,280,DOWN,LEFT,460,450,6,True,True,False,True,True,False,DOWN,DOWN,148,147
430,190,430,200,60,280,DOWN,LEFT,460,450,6,True,True,False,True,True,False,DOWN,DOWN,148,147
430,200,430,210,60,280,DOWN,LEFT,450,440,6,True,True,False,True,True,False,DOWN,DOWN,147,146
430,200,430,210,60,280,DOWN,LEFT,450,440,6,True,True,False,True,True,False,DOWN,DOWN,147,146
430,210,430,220,60,280,DOWN,LEFT,440,430,6,True,True,False,True,True,False,DOWN,DOWN,146,145
430,210,430,220,60,280,DOWN,LEFT,440,430,6,True,True,False,True,True,False,DOWN,DOWN,146,145
430,220,430,230,60,280,DOWN,LEFT,430,420,6,True,True,False,True,True,False,DOWN,DOWN,145,144
430,220,430,230,60,280,DOWN,LEFT,430,420,6,True,True,False,True,True,False,DOWN,DOWN,145,144
430,230,430,240,60,280,DOWN,LEFT,420,410,6,True,True,False,True,True,False,DOWN,DOWN,144,143
430,230,430,240,60,280,DOWN,LEFT,420,410,6,True,True,False,True,True,False,DOWN,DOWN,144,143
430,240,430,250,60,280,DOWN,LEFT,410,400,6,True,True,False,True,True,False,DOWN,DOWN,143,142
430,240,430,250,60,280,DOWN,LEFT,410,400,6,True,True,False,True,True,False,DOWN,DOWN,143,142
430,250,430,260,60,280,DOWN,LEFT,400,390,6,True,True,False,True,True,False,DOWN,DOWN,142,141
430,250,430,260,60,280,DOWN,LEFT,400,390,6,True,True,False,True,True,False,DOWN,DOWN,142,141
430,260,430,270,60,280,DOWN,LEFT,390,380,6,True,True,False,True,True,False,DOWN,DOWN,141,140
430,260,430,270,60,280,DOWN,LEFT,390,380,6,True,True,False,True,True,False,DOWN,DOWN,141,140
430,270,430,280,60,280,DOWN,LEFT,380,370,6,True,True,False,True,True,False,DOWN,DOWN,140,139
430,270,430,280,60,280,DOWN,LEFT,380,370,6,True,True,False,True,True,False,DOWN,DOWN,140,139
430,280,420,280,60,280,EQUAL,LEFT,370,360,6,True,True,False,True,True,False,DOWN,LEFT,139,138
430,280,420,280,60,280,EQUAL,LEFT,370,360,6,True,True,False,True,False,False,LEFT,LEFT,139,138
420,280,410,280,60,280,EQUAL,LEFT,360,350,6,False,True,True,True,False,False,LEFT,LEFT,138,137
420,280,410,280,60,280,EQUAL,LEFT,360,350,6,False,True,True,True,False,False,LEFT,LEFT,138,137
410,280,400,280,60,280,EQUAL,LEFT,350,340,6,False,True,True,True,False,False,LEFT,LEFT,137,136
410,280,400,280,60,280,EQUAL,LEFT,350,340,6,False,True,True,True,False,False,LEFT,LEFT,137,136
400,280,390,280,60,280,EQUAL,LEFT,340,330,6,False,True,True,True,False,False,LEFT,LEFT,136,135
400,280,390,280,60,280,EQUAL,LEFT,340,330,6,False,True,True,True,False,False,LEFT,LEFT,136,135
390,280,380,280,60,280,EQUAL,LEFT,330,320,6,False,True,True,True,False,False,LEFT,LEFT,135,134
390,280,380,280,60,280,EQUAL,LEFT,330,320,6,False,True,True,True,False,False,LEFT,LEFT,135,134
380,280,370,280,60,280,EQUAL,LEFT,320,310,6,False,True,True,True,False,False,LEFT,LEFT,134,133
380,280,370,280,60,280,EQUAL,LEFT,320,310,6,False,True,True,True,False,False,LEFT,LEFT,134,133
370,280,360,280,60,280,EQUAL,LEFT,310,300,6,False,True,True,True,False,False,LEFT,LEFT,133,132
370,280,360,280,60,280,EQUAL,LEFT,310,300,6,False,True,True,True,False,False,LEFT,LEFT,133,132
360,280,350,280,60,280,EQUAL,LEFT,300,290,6,False,True,True,True,False,False,LEFT,LEFT,132,131
360,280,350,280,60,280,EQUAL,LEFT,300,290,6,False,True,True,True,False,False,LEFT,LEFT,132,131
350,280,340,280,60,280,EQUAL,LEFT,290,280,6,False,True,True,True,False,False,LEFT,LEFT,131,130
350,280,340,280,60,280,EQUAL,LEFT,290,280,6,False,True,True,True,False,False,LEFT,LEFT,131,130
340,280,330,280,60,280,EQUAL,LEFT,280,270,6,False,True,True,True,False,False,LEFT,LEFT,130,129
340,280,330,280,60,280,EQUAL,LEFT,280,270,6,False,True,True,True,False,False,LEFT,LEFT,130,129
330,280,320,280,60,280,EQUAL,LEFT,270,260,6,False,True,True,True,False,False,LEFT,LEFT,129,128
330,280,320,280,60,280,EQUAL,LEFT,270,260,6,False,True,True,True,False,False,LEFT,LEFT,129,128
320,280,310,280,60,280,EQUAL,LEFT,260,250,6,False,True,True,True,False,False,LEFT,LEFT,128,127
320,280,310,280,60,280,EQUAL,LEFT,260,250,6,False,True,True,True,False,False,LEFT,LEFT,128,127
310,280,300,280,60,280,EQUAL,LEFT,250,240,6,False,True,True,True,False,False,LEFT,LEFT,127,126
310,280,300,280,60,280,EQUAL,LEFT,250,240,6,False,True,True,True,False,False,LEFT,LEFT,127,126
300,280,290,280,60,280,EQUAL,LEFT,240,230,6,False,True,True,True,False,False,LEFT,LEFT,126,125
300,280,290,280,60,280,EQUAL,LEFT,240,230,6,False,True,True,True,False,False,LEFT,LEFT,126,125
290,280,280,280,60,280,EQUAL,LEFT,230,220,6,False,True,True,True,False,False,LEFT,LEFT,125,124
290,280,280,280,60,280,EQUAL,LEFT,230,220,6,False,True,True,True,False,False,LEFT,LEFT,125,124
280,280,270,280,60,280,EQUAL,LEFT,220,210,6,False,True,True,True,False,False,LEFT,LEFT,124,123
280,280,270,280,60,280,EQUAL,LEFT,220,210,6,False,True,True,True,False,False,LEFT,LEFT,124,123
270,280,260,280,60,280,EQUAL,LEFT,210,200,6,False,True,True,True,False,False,LEFT,LEFT,123,122
270,280,260,280,60,280,EQUAL,LEFT,210,200,6,False,True,True,True,False,False,LEFT,LEFT,123,122
260,280,250,280,60,280,EQUAL,LEFT,200,190,6,False,True,True,True,False,False,LEFT,LEFT,122,121
260,280,250,280,60,280,EQUAL,LEFT,200,190,6,False,True,True,True,False,False,LEFT,LEFT,122,121
250,280,240,280,60,280,EQUAL,LEFT,190,180,6,False,True,True,True,False,False,LEFT,LEFT,121,120
250,280,240,280,60,280,EQUAL,LEFT,190,180,6,False,True,True,True,False,False,LEFT,LEFT,121,120
240,280,230,280,60,280,EQUAL,LEFT,180,170,6,False,True,True,True,False,False,LEFT,LEFT,120,119
240,280,230,280,60,280,EQUAL,LEFT,180,170,6,False,True,True,True,False,False,LEFT,LEFT,120,119
230,280,220,280,60,280,EQUAL,LEFT,170,160,6,False,True,True,True,False,False,LEFT,LEFT,119,118
230,280,220,280,60,280,EQUAL,LEFT,170,160,6,False,True,True,True,False,False,LEFT,LEFT,119,118
220,280,210,280,60,280,EQUAL,LEFT,160,150,6,False,True,True,True,False,False,LEFT,LEFT,118,117
220,280,210,280,60,280,EQUAL,LEFT,160,150,6,False,True,True,True,False,False,LEFT,LEFT,118,117
210,280,200,280,60,280,EQUAL,LEFT,150,140,6,False,True,True,True,False,False,LEFT,LEFT,117,116
210,280,200,280,60,280,EQUAL,LEFT,150,140,6,False,True,True,True,False,False,LEFT,LEFT,117,116
200,280,190,280,60,280,EQUAL,LEFT,140,130,6,False,True,True,True,False,False,LEFT,LEFT,116,115
200,280,190,280,60,280,EQUAL,LEFT,140,130,6,False,True,True,True,False,False,LEFT,LEFT,116,115
190,280,180,280,60,280,EQUAL,LEFT,130,120,6,False,True,True,True,False,False,LEFT,LEFT,115,114
190,280,180,280,60,280,EQUAL,LEFT,130,120,6,False,True,True,True,False,False,LEFT,LEFT,115,114
180,280,170,280,60,280,EQUAL,LEFT,120,110,6,False,True,True,True,False,False,LEFT,LEFT,114,113
180,280,170,280,60,280,EQUAL,LEFT,120,110,6,False,True,True,True,False,False,LEFT,LEFT,114,113
170,280,160,280,60,280,EQUAL,LEFT,110,100,6,False,True,True,True,False,False,LEFT,LEFT,113,112
170,280,160,280,60,280,EQUAL,LEFT,110,100,6,False,True,True,True,False,False,LEFT,LEFT,113,112
160,280,150,280,60,280,EQUAL,LEFT,100,90,6,False,True,True,True,False,False,LEFT,LEFT,112,111
160,280,150,280,60,280,EQUAL,LEFT,100,90,6,False,True,True,True,False,False,LEFT,LEFT,112,111
150,280,140,280,60,280,EQUAL,LEFT,90,80,6,False,True,True,True,False,False,LEFT,LEFT,111,110
150,280,140,280,60,280,EQUAL,LEFT,90,80,6,False,True,True,True,False,False,LEFT,LEFT,111,110
140,280,130,280,60,280,EQUAL,LEFT,80,70,6,False,True,True,True,False,False,LEFT,LEFT,110,109
140,280,130,280,60,280,EQUAL,LEFT,80,70,6,False,True,True,True,False,False,LEFT,LEFT,110,109
130,280,120,280,60,280,EQUAL,LEFT,70,60,6,False,True,True,True,False,False,LEFT,LEFT,109,108
130,280,120,280,60,280,EQUAL,LEFT,70,60,6,False,True,True,True,False,False,LEFT,LEFT,109,108
120,280,110,280,60,280,EQUAL,LEFT,60,50,6,False,True,True,True,False,False,LEFT,LEFT,108,107
120,280,110,280,60,280,EQUAL,LEFT,60,50,6,False,True,True,True,False,False,LEFT,LEFT,108,107
110,280,100,280,60,280,EQUAL,LEFT,50,40,6,False,True,True,True,False,False,LEFT,LEFT,107,106
110,280,100,280,60,280,EQUAL,LEFT,50,40,6,False,True,True,True,False,False,LEFT,LEFT,107,106
100,280,90,280,60,280,EQUAL,LEFT,40,30,6,False,True,True,True,False,False,LEFT,LEFT,106,105
100,280,90,280,60,280,EQUAL,LEFT,40,30,6,False,True,True,True,False,False,LEFT,LEFT,106,105
90,280,80,280,60,280,EQUAL,LEFT,30,20,6,False,True,True,True,False,False,LEFT,LEFT,105,104
90,280,80,280,60,280,EQUAL,LEFT,30,20,6,False,True,True,True,False,False,LEFT,LEFT,105,104
80,280,70,280,60,280,EQUAL,LEFT,20,10,6,False,True,True,True,False,False,LEFT,LEFT,104,103
80,280,70,280,60,280,EQUAL,LEFT,20,10,6,False,True,True,True,False,False,LEFT,LEFT,104,103
70,280,60,280,60,280,EQUAL,LEFT,10,0,6,False,True,True,True,False,False,LEFT,LEFT,103,203
70,280,60,280,60,280,EQUAL,LEFT,10,0,6,False,True,True,True,False,False,LEFT,LEFT,103,203
60,280,50,280,160,60,EQUAL,EQUAL,320,330,7,False,True,True,True,False,False,LEFT,LEFT,203,202
60,280,50,280,160,60,EQUAL,EQUAL,320,330,7,False,True,True,True,False,False,LEFT,LEFT,203,202
50,280,40,280,160,60,UP,RIGHT,330,340,7,False,True,True,True,False,False,LEFT,LEFT,202,201
50,280,40,280,160,60,UP,RIGHT,330,340,7,False,True,True,True,False,False,LEFT,LEFT,202,201
40,280,30,280,160,60,UP,RIGHT,340,350,7,False,True,True,True,False,False,LEFT,LEFT,201,200
40,280,30,280,160,60,UP,RIGHT,340,350,7,False,True,True,True,False,False,LEFT,LEFT,201,200
30,280,30,290,160,60,UP,RIGHT,350,360,7,False,True,True,True,False,False,LEFT,DOWN,200,199
30,280,30,290,160,60,UP,RIGHT,350,360,7,False,True,True,True,False,False,DOWN,DOWN,200,199
30,290,30,300,160,60,UP,RIGHT,360,370,7,True,True,False,True,False,False,DOWN,DOWN,199,198
30,290,30,300,160,60,UP,RIGHT,360,370,7,True,True,False,True,False,False,DOWN,DOWN,199,198
30,300,30,310,160,60,UP,RIGHT,370,380,7,True,True,False,True,False,False,DOWN,DOWN,198,197
30,300,30,310,160,60,UP,RIGHT,370,380,7,True,True,False,True,False,False,DOWN,DOWN,198,197
30,310,40,310,160,60,UP,RIGHT,380,370,7,True,True,False,True,False,False,DOWN,RIGHT,197,196
30,310,40,310,160,60,UP,RIGHT,380,370,7,True,True,False,True,False,False,RIGHT,RIGHT,197,196
40,310,50,310,160,60,UP,RIGHT,370,360,7,True,False,True,True,False,False,RIGHT,RIGHT,196,195
40,310,50,310,160,60,UP,RIGHT,370,360,7,True,False,True,True,False,False,RIGHT,RIGHT,196,195
50,310,60,310,160,60,UP,RIGHT,360,350,7,True,False,True,True,False,False,RIGHT,RIGHT,195,194
50,310,60,310,160,60,UP,RIGHT,360,350,7,True,False,True,True,False,False,RIGHT,RIGHT,195,194
60,310,70,310,160,60,UP,RIGHT,350,340,7,True,False,True,True,False,False,RIGHT,RIGHT,194,193
60,310,70,310,160,60,UP,RIGHT,350,340,7,True,False,True,True,False,False,RIGHT,RIGHT,194,193
70,310,80,310,160,60,UP,RIGHT,340,330,7,True,False,True,True,False,False,RIGHT,RIGHT,193,192
70,310,80,310,160,60,UP,RIGHT,340,330,7,True,False,True,True,False,False,RIGHT,RIGHT,193,192
80,310,90,310,160,60,UP,RIGHT,330,320,7,True,False,True,True,False,False,RIGHT,RIGHT,192,191
80,310,90,310,160,60,UP,RIGHT,330,320,7,True,False,True,True,False,False,RIGHT,RIGHT,192,191
90,310,100,310,160,60,UP,RIGHT,320,310,7,True,False,True,True,False,False,RIGHT,RIGHT,191,190
90,310,100,310,160,60,UP,RIGHT,320,310,7,True,False,True,True,False,False,RIGHT,RIGHT,191,190
100,310,110,310,160,60,UP,RIGHT,310,300,7,True,False,True,True,False,False,RIGHT,RIGHT,190,189
100,310,110,310,160,60,UP,RIGHT,310,300,7,True,False,True,True,False,False,RIGHT,RIGHT,190,189
110,310,120,310,160,60,UP,RIGHT,300,290,7,True,False,True,True,False,False,RIGHT,RIGHT,189,188
110,310,120,310,160,60,UP,RIGHT,300,290,7,True,False,True,True,False,False,RIGHT,RIGHT,189,188
120,310,130,310,160,60,UP,RIGHT,290,280,7,True,False,True,True,False,False,RIGHT,RIGHT,188,187
120,310,130,310,160,60,UP,RIGHT,290,280,7,True,False,True,True,False,False,RIGHT,RIGHT,188,187
130,310,140,310,160,60,UP,RIGHT,280,270,7,True,False,True,True,False,False,RIGHT,RIGHT,187,186
130,310,140,310,160,60,UP,RIGHT,280,270,7,True,False,True,True,False,False,RIGHT,RIGHT,187,186
140,310,150,310,160,60,UP,RIGHT,270,260,7,True,False,True,True,False,False,RIGHT,RIGHT,186,185
140,310,150,310,160,60,UP,RIGHT,270,260,7,True,False,True,True,False,False,RIGHT,RIGHT,186,185
150,310,160,310,160,60,UP,RIGHT,260,250,7,True,False,True,True,False,False,RIGHT,RIGHT,185,184
150,310,160,310,160,60,UP,RIGHT,260,250,7,True,False,True,True,False,False,RIGHT,RIGHT,185,184
160,310,160,300,160,60,UP,EQUAL,250,240,7,True,False,True,True,False,False,RIGHT,UP,184,183
160,310,160,300,160,60,UP,EQUAL,250,240,7,True,False,True,True,True,False,UP,UP,184,183
160,300,160,290,160,60,UP,EQUAL,240,230,7,True,True,True,False,True,False,UP,UP,183,182
160,300,160,290,160,60,UP,EQUAL,240,230,7,True,True,True,False,True,False,UP,UP,183,182
160,290,160,280,160,60,UP,EQUAL,230,220,7,True,True,True,False,True,False,UP,UP,182,181
160,290,160,280,160,60,UP,EQUAL,230,220,7,True,True,True,False,True,False,UP,UP,182,181
160,280,160,270,160,60,UP,EQUAL,220,210,7,True,True,True,False,True,False,UP,UP,181,180
160,280,160,270,160,60,UP,EQUAL,220,210,7,True,True,True,False,True,False,UP,UP,181,180
160,270,160,260,160,60,UP,EQUAL,210,200,7,True,True,True,False,True,False,UP,UP,180,179
160,270,160,260,160,60,UP,EQUAL,210,200,7,True,True,True,False,True,False,UP,UP,180,179
160,260,160,250,160,60,UP,EQUAL,200,190,7,True,True,True,False,True,False,UP,UP,179,178
160,260,160,250,160,60,UP,EQUAL,200,190,7,True,True,True,False,True,False,UP,UP,179,178
160,250,160,240,160,60,UP,EQUAL,190,180,7,True,True,True,False,True,False,UP,UP,178,177
160,250,160,240,160,60,UP,EQUAL,190,180,7,True,True,True,False,True,False,UP,UP,178,177
160,240,160,230,160,60,UP,EQUAL,180,170,7,True,True,True,False,True,False,UP,UP,177,176
160,240,160,230,160,60,UP,EQUAL,180,170,7,True,True,True,False,True,False,UP,UP,177,176
160,230,160,220,160,60,UP,EQUAL,170,160,7,True,True,True,False,True,False,UP,UP,176,175
160,230,160,220,160,60,UP,EQUAL,170,160,7,True,True,True,False,True,False,UP,UP,176,175
160,220,160,210,160,60,UP,EQUAL,160,150,7,True,True,True,False,True,False,UP,UP,175,174
160,220,160,210,160,60,UP,EQUAL,160,150,7,True,True,True,False,True,False,UP,UP,175,174
160,210,160,200,160,60,UP,EQUAL,150,140,7,True,True,True,False,True,False,UP,UP,174,173
160,210,160,200,160,60,UP,EQUAL,150,140,7,True,True,True,False,True,False,UP,UP,174,173
160,200,160,190,160,60,UP,EQUAL,140,130,7,True,True,True,False,True,False,UP,UP,173,172
160,200,160,190,160,60,UP,EQUAL,140,130,7,True,True,True,False,True,False,UP,UP,173,172
160,190,160,180,160,60,UP,EQUAL,130,120,7,True,True,True,False,True,False,UP,UP,172,171
160,190,160,180,160,60,UP,EQUAL,130,120,7,True,True,True,False,True,False,UP,UP,172,171
160,180,160,170,160,60,UP,EQUAL,120,110,7,True,True,True,False,True,False,UP,UP,171,170
160,180,160,170,160,60,UP,EQUAL,120,110,7,True,True,True,False,True,False,UP,UP,171,170
160,170,160,160,160,60,UP,EQUAL,110,100,7,True,True,True,False,True,False,UP,UP,170,169
160,170,160,160,160,60,UP,EQUAL,110,100,7,True,True,True,False,True,False,UP,UP,170,169
160,160,160,150,160,60,UP,EQUAL,100,90,7,True,True,True,False,True,False,UP,UP,169,168
160,160,160,150,160,60,UP,EQUAL,100,90,7,True,True,True,False,True,False,UP,UP,169,168
160,150,160,140,160,60,UP,EQUAL,90,80,7,True,True,True,False,True,False,UP,UP,168,167
160,150,160,140,160,60,UP,EQUAL,90,80,7,True,True,True,False,True,False,UP,UP,168,167
160,140,160,130,160,60,UP,EQUAL,80,70,7,True,True,True,False,True,False,UP,UP,167,166
160,140,160,130,160,60,UP,EQUAL,80,70,7,True,True,True,False,True,False,UP,UP,167,166
160,130,160,120,160,60,UP,EQUAL,70,60,7,True,True,True,False,True,False,UP,UP,166,165
160,130,160,120,160,60,UP,EQUAL,70,60,7,True,True,True,False,True,False,UP,UP,166,165
160,120,160,110,160,60,UP,EQUAL,60,50,7,True,True,True,False,True,False,UP,UP,165,164
160,120,160,110,160,60,UP,EQUAL,60,50,7,True,True,True,False,True,False,UP,UP,165,164
160,110,160,100,160,60,UP,EQUAL,50,40,7,True,True,True,False,True,False,UP,UP,164,163
160,110,160,100,160,60,UP,EQUAL,50,40,7,True,True,True,False,True,False,UP,UP,164,163
160,100,160,90,160,60,UP,EQUAL,40,30,7,True,True,True,False,True,False,UP,UP,163,162
160,100,160,90,160,60,UP,EQUAL,40,30,7,True,True,True,False,True,False,UP,UP,163,162
160,90,160,80,160,60,UP,EQUAL,30,20,7,True,True,True,False,True,False,UP,UP,162,161
160,90,160,80,160,60,UP,EQUAL,30,20,7,True,True,True,False,True,False,UP,UP,162,161
160,80,160,70,160,60,UP,EQUAL,20,10,7,True,True,True,False,True,False,UP,UP,161,160
160,80,160,70,160,60,UP,EQUAL,20,10,7,True,True,True,False,True,False,UP,UP,161,160
160,70,160,60,160,60,UP,EQUAL,10,0,7,True,True,True,False,True,False,UP,UP,160,260
160,70,160,60,160,60,UP,EQUAL,10,0,7,True,True,True,False,True,False,UP,UP,160,260
160,60,160,50,170,260,EQUAL,EQUAL,210,220,8,True,True,True,False,True,False,UP,UP,260,259
160,60,160,50,170,260,EQUAL,EQUAL,210,220,8,True,True,True,False,True,False,UP,UP,260,259
160,50,160,40,170,260,DOWN,RIGHT,220,230,8,True,True,True,False,True,False,UP,UP,259,258
160,50,160,40,170,260,DOWN,RIGHT,220,230,8,True,True,True,False,True,False,UP,UP,259,258
160,40,170,40,170,260,DOWN,RIGHT,230,220,8,True,True,True,False,True,False,UP,RIGHT,258,257
160,40,170,40,170,260,DOWN,RIGHT,230,220,8,True,True,True,False,False,False,RIGHT,RIGHT,258,257
170,40,180,40,170,260,DOWN,EQUAL,220,230,8,True,False,True,True,False,False,RIGHT,RIGHT,257,256
170,40,180,40,170,260,DOWN,EQUAL,220,230,8,True,False,True,True,False,False,RIGHT,RIGHT,257,256
180,40,190,40,170,260,DOWN,LEFT,230,240,8,True,False,True,True,False,False,RIGHT,RIGHT,256,255
180,40,190,40,170,260,DOWN,LEFT,230,240,8,True,False,True,True,False,False,RIGHT,RIGHT,256,255
190,40,200,40,170,260,DOWN,LEFT,240,250,8,True,False,True,True,False,False,RIGHT,RIGHT,255,254
190,40,200,40,170,260,DOWN,LEFT,240,250,8,True,False,True,True,False,False,RIGHT,RIGHT,255,254
200,40,200,50,170,260,DOWN,LEFT,250,240,8,True,False,True,True,False,False,RIGHT,DOWN,254,253
200,40,200,50,170,260,DOWN,LEFT,250,240,8,True,False,True,True,False,False,DOWN,DOWN,254,253
200,50,200,60,170,260,DOWN,LEFT,240,230,8,True,True,False,True,False,False,DOWN,DOWN,253,252
200,50,200,60,170,260,DOWN,LEFT,240,230,8,True,True,False,True,False,False,DOWN,DOWN,253,252
200,60,200,70,170,260,DOWN,LEFT,230,220,8,True,True,False,True,False,False,DOWN,DOWN,252,251
200,60,200,70,170,260,DOWN,LEFT,230,220,8,True,True,False,True,False,False,DOWN,DOWN,252,251
200,70,200,80,170,260,DOWN,LEFT,220,210,8,True,True,False,True,False,False,DOWN,DOWN,251,250
200,70,200,80,170,260,DOWN,LEFT,220,210,8,True,True,False,True,False,False,DOWN,DOWN,251,250
200,80,200,90,170,260,DOWN,LEFT,210,200,8,True,True,False,True,False,False,DOWN,DOWN,250,249
200,80,200,90,170,260,DOWN,LEFT,210,200,8,True,True,False,True,False,False,DOWN,DOWN,250,249
200,90,200,100,170,260,DOWN,LEFT,200,190,8,True,True,False,True,False,False,DOWN,DOWN,249,248
200,90,200,100,170,260,DOWN,LEFT,200,190,8,True,True,False,True,False,False,DOWN,DOWN,249,248
200,100,190,100,170,260,DOWN,LEFT,190,180,8,True,True,False,True,False,False,DOWN,LEFT,248,247
200,100,190,100,170,260,DOWN,LEFT,190,180,8,True,True,False,True,True,False,LEFT,LEFT,248,247
190,100,180,100,170,260,DOWN,LEFT,180,170,8,False,True,True,True,True,False,LEFT,LEFT,247,246
190,100,180,100,170,260,DOWN,LEFT,180,170,8,False,True,True,True,True,False,LEFT,LEFT,247,246
180,100,180,110,170,260,DOWN,LEFT,170,160,8,False,True,True,True,True,False,LEFT,DOWN,246,245
180,100,180,110,170,260,DOWN,LEFT,170,160,8,False,True,True,True,False,False,DOWN,DOWN,246,245
180,110,180,120,170,260,DOWN,LEFT,160,150,8,True,True,False,True,False,False,DOWN,DOWN,245,244
180,110,180,120,170,260,DOWN,LEFT,160,150,8,True,True,False,True,False,False,DOWN,DOWN,245,244
180,120,180,130,170,260,DOWN,LEFT,150,140,8,True,True,False,True,False,False,DOWN,DOWN,244,243
180,120,180,130,170,260,DOWN,LEFT,150,140,8,True,True,False,True,False,False,DOWN,DOWN,244,243
180,130,180,140,170,260,DOWN,LEFT,140,130,8,True,True,False,True,False,False,DOWN,DOWN,243,242
180,130,180,140,170,260,DOWN,LEFT,140,130,8,True,True,False,True,False,False,DOWN,DOWN,243,242
180,140,180,150,170,260,DOWN,LEFT,130,120,8,True,True,False,True,False,False,DOWN,DOWN,242,241
180,140,180,150,170,260,DOWN,LEFT,130,120,8,True,True,False,True,False,False,DOWN,DOWN,242,241
180,150,180,160,170,260,DOWN,LEFT,120,110,8,True,True,False,True,False,False,DOWN,DOWN,241,240
180,150,180,160,170,260,DOWN,LEFT,120,110,8,True,True,False,True,False,False,DOWN,DOWN,241,240
180,160,180,170,170,260,DOWN,LEFT,110,100,8,True,True,False,True,False,False,DOWN,DOWN,240,239
180,160,180,170,170,260,DOWN,LEFT,110,100,8,True,True,False,True,False,False,DOWN,DOWN,240,239
180,170,180,180,170,260,DOWN,LEFT,100,90,8,True,True,False,True,False,False,DOWN,DOWN,239,238
180,170,180,180,170,260,DOWN,LEFT,100,90,8,True,True,False,True,False,False,DOWN,DOWN,239,238
180,180,180,190,170,260,DOWN,LEFT,90,80,8,True,True,False,True,False,False,DOWN,DOWN,238,237
180,180,180,190,170,260,DOWN,LEFT,90,80,8,True,True,False,True,False,False,DOWN,DOWN,238,237
180,190,180,200,170,260,DOWN,LEFT,80,70,8,True,True,False,True,False,False,DOWN,DOWN,237,236
180,190,180,200,170,260,DOWN,LEFT,80,70,8,True,True,False,True,False,False,DOWN,DOWN,237,236
180,200,180,210,170,260,DOWN,LEFT,70,60,8,True,True,False,True,False,False,DOWN,DOWN,236,235
180,200,180,210,170,260,DOWN,LEFT,70,60,8,True,True,False,True,False,False,DOWN,DOWN,236,235
180,210,170,210,170,260,DOWN,LEFT,60,50,8,True,True,False,True,False,False,DOWN,LEFT,235,234
180,210,170,210,170,260,DOWN,LEFT,60,50,8,True,True,False,True,False,False,LEFT,LEFT,235,234
170,210,170,220,170,260,DOWN,EQUAL,50,40,8,False,True,True,True,False,False,LEFT,DOWN,234,233
170,210,170,220,170,260,DOWN,EQUAL,50,40,8,False,True,True,True,False,False,DOWN,DOWN,234,233
170,220,170,230,170,260,DOWN,EQUAL,40,30,8,True,True,False,True,False,False,DOWN,DOWN,233,232
170,220,170,230,170,260,DOWN,EQUAL,40,30,8,True,True,False,True,False,False,DOWN,DOWN,233,232
170,230,170,240,170,260,DOWN,EQUAL,30,20,8,True,True,False,True,False,False,DOWN,DOWN,232,231
170,230,170,240,170,260,DOWN,EQUAL,30,20,8,True,True,False,True,False,False,DOWN,DOWN,232,231
170,240,170,250,170,260,DOWN,EQUAL,20,10,8,True,True,False,True,False,False,DOWN,DOWN,231,230
170,240,170,250,170,260,DOWN,EQUAL,20,10,8,True,True,False,True,False,False,DOWN,DOWN,231,230
170,250,170,260,170,260,DOWN,EQUAL,10,0,8,True,True,False,True,False,False,DOWN,DOWN,230,330
170,250,170,260,170,260,DOWN,EQUAL,10,0,8,True,True,False,True,False,False,DOWN,DOWN,230,330
170,260,170,270,390,400,EQUAL,EQUAL,360,350,9,True,True,False,True,False,False,DOWN,DOWN,330,329
170,260,170,270,390,400,EQUAL,EQUAL,360,350,9,True,True,False,True,False,False,DOWN,DOWN,330,329
170,270,170,280,390,400,DOWN,RIGHT,350,340,9,True,True,False,True,False,False,DOWN,DOWN,329,328
170,270,170,280,390,400,DOWN,RIGHT,350,340,9,True,True,False,True,False,False,DOWN,DOWN,329,328
170,280,170,290,390,400,DOWN,RIGHT,340,330,9,True,True,False,True,False,False,DOWN,DOWN,328,327
170,280,170,290,390,400,DOWN,RIGHT,340,330,9,True,True,False,True,False,False,DOWN,DOWN,328,327
170,290,170,300,390,400,DOWN,RIGHT,330,320,9,True,True,False,True,False,False,DOWN,DOWN,327,326
170,290,170,300,390,400,DOWN,RIGHT,330,320,9,True,True,False,True,False,False,DOWN,DOWN,327,326
170,300,170,310,390,400,DOWN,RIGHT,320,310,9,True,True,False,True,False,False,DOWN,DOWN,326,325
170,300,170,310,390,400,DOWN,RIGHT,320,310,9,True,True,False,True,False,False,DOWN,DOWN,326,325
170,310,170,320,390,400,DOWN,RIGHT,310,300,9,True,True,False,True,False,False,DOWN,DOWN,325,324
170,310,170,320,390,400,DOWN,RIGHT,310,300,9,True,True,False,True,False,False,DOWN,DOWN,325,324
170,320,170,330,390,400,DOWN,RIGHT,300,290,9,True,True,False,True,False,False,DOWN,DOWN,324,323
170,320,170,330,390,400,DOWN,RIGHT,300,290,9,True,True,False,True,False,False,DOWN,DOWN,324,323
170,330,170,340,390,400,DOWN,RIGHT,290,280,9,True,True,False,True,False,False,DOWN,DOWN,323,322
170,330,170,340,390,400,DOWN,RIGHT,290,280,9,True,True,False,True,False,False,DOWN,DOWN,323,322
170,340,170,350,390,400,DOWN,RIGHT,280,270,9,True,True,False,True,False,False,DOWN,DOWN,322,321
170,340,170,350,390,400,DOWN,RIGHT,280,270,9,True,True,False,True,False,False,DOWN,DOWN,322,321
170,350,170,360,390,400,DOWN,RIGHT,270,260,9,True,True,False,True,False,False,DOWN,DOWN,321,320
170,350,170,360,390,400,DOWN,RIGHT,270,260,9,True,True,False,True,False,False,DOWN,DOWN,321,320
170,360,170,370,390,400,DOWN,RIGHT,260,250,9,True,True,False,True,False,False,DOWN,DOWN,320,319
170,360,170,370,390,400,DOWN,RIGHT,260,250,9,True,True,False,True,False,False,DOWN,DOWN,320,319
170,370,170,380,390,400,DOWN,RIGHT,250,240,9,True,True,False,True,False,False,DOWN,DOWN,319,318
170,370,170,380,390,400,DOWN,RIGHT,250,240,9,True,True,False,True,False,False,DOWN,DOWN,319,318
170,380,170,390,390,400,DOWN,RIGHT,240,230,9,True,True,False,True,False,False,DOWN,DOWN,318,317
170,380,170,390,390,400,DOWN,RIGHT,240,230,9,True,True,False,True,False,False,DOWN,DOWN,318,317
170,390,180,390,390,400,DOWN,RIGHT,230,220,9,True,True,False,True,False,False,DOWN,RIGHT,317,316
170,390,180,390,390,400,DOWN,RIGHT,230,220,9,True,True,False,True,False,False,RIGHT,RIGHT,317,316
180,390,190,390,390,400,DOWN,RIGHT,220,210,9,True,False,True,True,False,False,RIGHT,RIGHT,316,315
180,390,190,390,390,400,DOWN,RIGHT,220,210,9,True,False,True,True,False,False,RIGHT,RIGHT,316,315
190,390,200,390,390,400,DOWN,RIGHT,210,200,9,True,False,True,True,False,False,RIGHT,RIGHT,315,314
190,390,200,390,390,400,DOWN,RIGHT,210,200,9,True,False,True,True,False,False,RIGHT,RIGHT,315,314
200,390,210,390,390,400,DOWN,RIGHT,200,190,9,True,False,True,True,False,False,RIGHT,RIGHT,314,313
200,390,210,390,390,400,DOWN,RIGHT,200,190,9,True,False,True,True,False,False,RIGHT,RIGHT,314,313
210,390,220,390,390,400,DOWN,RIGHT,190,180,9,True,False,True,True,False,False,RIGHT,RIGHT,313,312
210,390,220,390,390,400,DOWN,RIGHT,190,180,9,True,False,True,True,False,False,RIGHT,RIGHT,313,312
220,390,230,390,390,400,DOWN,RIGHT,180,170,9,True,False,True,True,False,False,RIGHT,RIGHT,312,311
220,390,230,390,390,400,DOWN,RIGHT,180,170,9,True,False,True,True,False,False,RIGHT,RIGHT,312,311
230,390,240,390,390,400,DOWN,RIGHT,170,160,9,True,False,True,True,False,False,RIGHT,RIGHT,311,310
230,390,240,390,390,400,DOWN,RIGHT,170,160,9,True,False,True,True,False,False,RIGHT,RIGHT,311,310
240,390,250,390,390,400,DOWN,RIGHT,160,150,9,True,False,True,True,False,False,RIGHT,RIGHT,310,309
240,390,250,390,390,400,DOWN,RIGHT,160,150,9,True,False,True,True,False,False,RIGHT,RIGHT,310,309
250,390,260,390,390,400,DOWN,RIGHT,150,140,9,True,False,True,True,False,False,RIGHT,RIGHT,309,308
250,390,260,390,390,400,DOWN,RIGHT,150,140,9,True,False,True,True,False,False,RIGHT,RIGHT,309,308
260,390,270,390,390,400,DOWN,RIGHT,140,130,9,True,False,True,True,False,False,RIGHT,RIGHT,308,307
260,390,270,390,390,400,DOWN,RIGHT,140,130,9,True,False,True,True,False,False,RIGHT,RIGHT,308,307
270,390,280,390,390,400,DOWN,RIGHT,130,120,9,True,False,True,True,False,False,RIGHT,RIGHT,307,306
270,390,280,390,390,400,DOWN,RIGHT,130,120,9,True,False,True,True,False,False,RIGHT,RIGHT,307,306
280,390,290,390,390,400,DOWN,RIGHT,120,110,9,True,False,True,True,False,False,RIGHT,RIGHT,306,305
280,390,290,390,390,400,DOWN,RIGHT,120,110,9,True,False,True,True,False,False,RIGHT,RIGHT,306,305
290,390,300,390,390,400,DOWN,RIGHT,110,100,9,True,False,True,True,False,False,RIGHT,RIGHT,305,304
290,390,300,390,390,400,DOWN,RIGHT,110,100,9,True,False,True,True,False,False,RIGHT,RIGHT,305,304
300,390,310,390,390,400,DOWN,RIGHT,100,90,9,True,False,True,True,False,False,RIGHT,RIGHT,304,303
300,390,310,390,390,400,DOWN,RIGHT,100,90,9,True,False,True,True,False,False,RIGHT,RIGHT,304,303
310,390,320,390,390,400,DOWN,RIGHT,90,80,9,True,False,True,True,False,False,RIGHT,RIGHT,303,302
310,390,320,390,390,400,DOWN,RIGHT,90,80,9,True,False,True,True,False,False,RIGHT,RIGHT,303,302
320,390,330,390,390,400,DOWN,RIGHT,80,70,9,True,False,True,True,False,False,RIGHT,RIGHT,302,301
320,390,330,390,390,400,DOWN,RIGHT,80,70,9,True,False,True,True,False,False,RIGHT,RIGHT,302,301
330,390,340,390,390,400,DOWN,RIGHT,70,60,9,True,False,True,True,False,False,RIGHT,RIGHT,301,300
330,390,340,390,390,400,DOWN,RIGHT,70,60,9,True,False,True,True,False,False,RIGHT,RIGHT,301,300
340,390,350,390,390,400,DOWN,RIGHT,60,50,9,True,False,True,True,False,False,RIGHT,RIGHT,300,299
340,390,350,390,390,400,DOWN,RIGHT,60,50,9,True,False,True,True,False,False,RIGHT,RIGHT,300,299
350,390,360,390,390,400,DOWN,RIGHT,50,40,9,True,False,True,True,False,False,RIGHT,RIGHT,299,298
350,390,360,390,390,400,DOWN,RIGHT,50,40,9,True,False,True,True,False,False,RIGHT,RIGHT,299,298
360,390,370,390,390,400,DOWN,RIGHT,40,30,9,True,False,True,True,False,False,RIGHT,RIGHT,298,297
360,390,370,390,390,400,DOWN,RIGHT,40,30,9,True,False,True,True,False,False,RIGHT,RIGHT,298,297
370,390,380,390,390,400,DOWN,RIGHT,30,20,9,True,False,True,True,False,False,RIGHT,RIGHT,297,296
370,390,380,390,390,400,DOWN,RIGHT,30,20,9,True,False,True,True,False,False,RIGHT,RIGHT,297,296
380,390,390,390,390,400,DOWN,RIGHT,20,10,9,True,False,True,True,False,False,RIGHT,RIGHT,296,295
380,390,390,390,390,400,DOWN,RIGHT,20,10,9,True,False,True,True,False,False,RIGHT,RIGHT,296,295
390,390,390,400,390,400,DOWN,EQUAL,10,0,9,True,False,True,True,False,False,RIGHT,DOWN,295,395
390,390,390,400,390,400,DOWN,EQUAL,10,0,9,True,False,True,True,False,False,DOWN,DOWN,295,395
390,400,390,410,20,60,EQUAL,EQUAL,710,720,10,True,True,False,True,False,False,DOWN,DOWN,395,394
390,400,390,410,20,60,EQUAL,EQUAL,710,720,10,True,True,False,True,False,False,DOWN,DOWN,395,394
390,410,390,420,20,60,UP,LEFT,720,730,10,True,True,False,True,False,False,DOWN,DOWN,394,393
390,410,390,420,20,60,UP,LEFT,720,730,10,True,True,False,True,False,False,DOWN,DOWN,394,393
390,420,390,430,20,60,UP,LEFT,730,740,10,True,True,False,True,False,False,DOWN,DOWN,393,392
390,420,390,430,20,60,UP,LEFT,730,740,10,True,True,False,True,False,False,DOWN,DOWN,393,392
390,430,390,440,20,60,UP,LEFT,740,750,10,True,True,False,True,False,False,DOWN,DOWN,392,391
390,430,390,440,20,60,UP,LEFT,740,750,10,True,True,False,True,False,False,DOWN,DOWN,392,391
390,440,380,440,20,60,UP,LEFT,750,740,10,True,True,False,True,False,False,DOWN,LEFT,391,390
390,440,380,440,20,60,UP,LEFT,750,740,10,True,True,False,True,False,False,LEFT,LEFT,391,390
380,440,370,440,20,60,UP,LEFT,740,730,10,False,True,True,True,False,False,LEFT,LEFT,390,389
380,440,370,440,20,60,UP,LEFT,740,730,10,False,True,True,True,False,False,LEFT,LEFT,390,389
370,440,360,440,20,60,UP,LEFT,730,720,10,False,True,True,True,False,False,LEFT,LEFT,389,388
370,440,360,440,20,60,UP,LEFT,730,720,10,False,True,True,True,False,False,LEFT,LEFT,389,388
360,440,350,440,20,60,UP,LEFT,720,710,10,False,True,True,True,False,False,LEFT,LEFT,388,387
360,440,350,440,20,60,UP,LEFT,720,710,10,False,True,True,True,False,False,LEFT,LEFT,388,387
350,440,340,440,20,60,UP,LEFT,710,700,10,False,True,True,True,False,False,LEFT,LEFT,387,386
350,440,340,440,20,60,UP,LEFT,710,700,10,False,True,True,True,False,False,LEFT,LEFT,387,386
340,440,330,440,20,60,UP,LEFT,700,690,10,False,True,True,True,False,False,LEFT,LEFT,386,385
340,440,330,440,20,60,UP,LEFT,700,690,10,False,True,True,True,False,False,LEFT,LEFT,386,385
330,440,320,440,20,60,UP,LEFT,690,680,10,False,True,True,True,False,False,LEFT,LEFT,385,384
330,440,320,440,20,60,UP,LEFT,690,680,10,False,True,True,True,False,False,LEFT,LEFT,385,384
320,440,310,440,20,60,UP,LEFT,680,670,10,False,True,True,True,False,False,LEFT,LEFT,384,383
320,440,310,440,20,60,UP,LEFT,680,670,10,False,True,True,True,False,False,LEFT,LEFT,384,383
310,440,300,440,20,60,UP,LEFT,670,660,10,False,True,True,True,False,False,LEFT,LEFT,383,382
310,440,300,440,20,60,UP,LEFT,670,660,10,False,True,True,True,False,False,LEFT,LEFT,383,382
300,440,290,440,20,60,UP,LEFT,660,650,10,False,True,True,True,False,False,LEFT,LEFT,382,381
300,440,290,440,20,60,UP,LEFT,660,650,10,False,True,True,True,False,False,LEFT,LEFT,382,381
290,440,280,440,20,60,UP,LEFT,650,640,10,False,True,True,True,False,False,LEFT,LEFT,381,380
290,440,280,440,20,60,UP,LEFT,650,640,10,False,True,True,True,False,False,LEFT,LEFT,381,380
280,440,270,440,20,60,UP,LEFT,640,630,10,False,True,True,True,False,False,LEFT,LEFT,380,379
280,440,270,440,20,60,UP,LEFT,640,630,10,False,True,True,True,False,False,LEFT,LEFT,380,379
270,440,260,440,20,60,UP,LEFT,630,620,10,False,True,True,True,False,False,LEFT,LEFT,379,378
270,440,260,440,20,60,UP,LEFT,630,620,10,False,True,True,True,False,False,LEFT,LEFT,379,378
260,440,250,440,20,60,UP,LEFT,620,610,10,False,True,True,True,False,False,LEFT,LEFT,378,377
260,440,250,440,20,60,UP,LEFT,620,610,10,False,True,True,True,False,False,LEFT,LEFT,378,377
250,440,240,440,20,60,UP,LEFT,610,600,10,False,True,True,True,False,False,LEFT,LEFT,377,376
250,440,240,440,20,60,UP,LEFT,610,600,10,False,True,True,True,False,False,LEFT,LEFT,377,376
240,440,230,440,20,60,UP,LEFT,600,590,10,False,True,True,True,False,False,LEFT,LEFT,376,375
240,440,230,440,20,60,UP,LEFT,600,590,10,False,True,True,True,False,False,LEFT,LEFT,376,375
230,440,220,440,20,60,UP,LEFT,590,580,10,False,True,True,True,False,False,LEFT,LEFT,375,374
230,440,220,440,20,60,UP,LEFT,590,580,10,False,True,True,True,False,False,LEFT,LEFT,375,374
220,440,210,440,20,60,UP,LEFT,580,570,10,False,True,True,True,False,False,LEFT,LEFT,374,373
220,440,210,440,20,60,UP,LEFT,580,570,10,False,True,True,True,False,False,LEFT,LEFT,374,373
210,440,200,440,20,60,UP,LEFT,570,560,10,False,True,True,True,False,False,LEFT,LEFT,373,372
210,440,200,440,20,60,UP,LEFT,570,560,10,False,True,True,True,False,False,LEFT,LEFT,373,372
200,440,190,440,20,60,UP,LEFT,560,550,10,False,True,True,True,False,False,LEFT,LEFT,372,371
200,440,190,440,20,60,UP,LEFT,560,550,10,False,True,True,True,False,False,LEFT,LEFT,372,371
190,440,180,440,20,60,UP,LEFT,550,540,10,False,True,True,True,False,False,LEFT,LEFT,371,370
190,440,180,440,20,60,UP,LEFT,550,540,10,False,True,True,True,False,False,LEFT,LEFT,371,370
180,440,170,440,20,60,UP,LEFT,540,530,10,False,True,True,True,False,False,LEFT,LEFT,370,369
180,440,170,440,20,60,UP,LEFT,540,530,10,False,True,True,True,False,False,LEFT,LEFT,370,369
170,440,160,440,20,60,UP,LEFT,530,520,10,False,True,True,True,False,False,LEFT,LEFT,369,368
170,440,160,440,20,60,UP,LEFT,530,520,10,False,True,True,True,False,False,LEFT,LEFT,369,368
160,440,150,440,20,60,UP,LEFT,520,510,10,False,True,True,True,False,False,LEFT,LEFT,368,367
160,440,150,440,20,60,UP,LEFT,520,510,10,False,True,True,True,False,False,LEFT,LEFT,368,367
150,440,140,440,20,60,UP,LEFT,510,500,10,False,True,True,True,False,False,LEFT,LEFT,367,366
150,440,140,440,20,60,UP,LEFT,510,500,10,False,True,True,True,False,False,LEFT,LEFT,367,366
140,440,130,440,20,60,UP,LEFT,500,490,10,False,True,True,True,False,False,LEFT,LEFT,366,365
140,440,130,440,20,60,UP,LEFT,500,490,10,False,True,True,True,False,False,LEFT,LEFT,366,365
130,440,120,440,20,60,UP,LEFT,490,480,10,False,True,True,True,False,False,LEFT,LEFT,365,364
130,440,120,440,20,60,UP,LEFT,490,480,10,False,True,True,True,False,False,LEFT,LEFT,365,364
120,440,110,440,20,60,UP,LEFT,480,470,10,False,True,True,True,False,False,LEFT,LEFT,364,363
120,440,110,440,20,60,UP,LEFT,480,470,10,False,True,True,True,False,False,LEFT,LEFT,364,363
110,440,100,440,20,60,UP,LEFT,470,460,10,False,True,True,True,False,False,LEFT,LEFT,363,362
110,440,100,440,20,60,UP,LEFT,470,460,10,False,True,True,True,False,False,LEFT,LEFT,363,362
100,440,90,440,20,60,UP,LEFT,460,450,10,False,True,True,True,False,False,LEFT,LEFT,362,361
100,440,90,440,20,60,UP,LEFT,460,450,10,False,True,True,True,False,False,LEFT,LEFT,362,361
90,440,80,440,20,60,UP,LEFT,450,440,10,False,True,True,True,False,False,LEFT,LEFT,361,360
90,440,80,440,20,60,UP,LEFT,450,440,10,False,True,True,True,False,False,LEFT,LEFT,361,360
80,440,70,440,20,60,UP,LEFT,440,430,10,False,True,True,True,False,False,LEFT,LEFT,360,359
80,440,70,440,20,60,UP,LEFT,440,430,10,False,True,True,True,False,False,LEFT,LEFT,360,359
70,440,60,440,20,60,UP,LEFT,430,420,10,False,True,True,True,False,False,LEFT,LEFT,359,358
70,440,60,440,20,60,UP,LEFT,430,420,10,False,True,True,True,False,False,LEFT,LEFT,359,358
60,440,50,440,20,60,UP,LEFT,420,410,10,False,True,True,True,False,False,LEFT,LEFT,358,357
60,440,50,440,20,60,UP,LEFT,420,410,10,False,True,True,True,False,False,LEFT,LEFT,358,357
50,440,40,440,20,60,UP,LEFT,410,400,10,False,True,True,True,False,False,LEFT,LEFT,357,356
50,440,40,440,20,60,UP,LEFT,410,400,10,False,True,True,True,False,False,LEFT,LEFT,357,356
40,440,30,440,20,60,UP,LEFT,400,390,10,False,True,True,True,False,False,LEFT,LEFT,356,355
40,440,30,440,20,60,UP,LEFT,400,390,10,False,True,True,True,False,False,LEFT,LEFT,356,355
30,440,20,440,20,60,UP,LEFT,390,380,10,False,True,True,True,False,False,LEFT,LEFT,355,354
30,440,20,440,20,60,UP,LEFT,390,380,10,False,True,True,True,False,False,LEFT,LEFT,355,354
20,440,20,430,20,60,UP,EQUAL,380,370,10,False,True,True,True,False,False,LEFT,UP,354,353
20,440,20,430,20,60,UP,EQUAL,380,370,10,False,True,True,True,True,False,UP,UP,354,353
20,430,20,420,20,60,UP,EQUAL,370,360,10,True,True,True,False,True,False,UP,UP,353,352
20,430,20,420,20,60,UP,EQUAL,370,360,10,True,True,True,False,True,False,UP,UP,353,352
20,420,20,410,20,60,UP,EQUAL,360,350,10,True,True,True,False,True,False,UP,UP,352,351
20,420,20,410,20,60,UP,EQUAL,360,350,10,True,True,True,False,True,False,UP,UP,352,351
20,410,20,400,20,60,UP,EQUAL,350,340,10,True,True,True,False,True,False,UP,UP,351,350
20,410,20,400,20,60,UP,EQUAL,350,340,10,True,True,True,False,True,False,UP,UP,351,350
20,400,20,390,20,60,UP,EQUAL,340,330,10,True,True,True,False,True,False,UP,UP,350,349
20,400,20,390,20,60,UP,EQUAL,340,330,10,True,True,True,False,True,False,UP,UP,350,349
20,390,20,380,20,60,UP,EQUAL,330,320,10,True,True,True,False,True,False,UP,UP,349,348
20,390,20,380,20,60,UP,EQUAL,330,320,10,True,True,True,False,True,False,UP,UP,349,348
20,380,20,370,20,60,UP,EQUAL,320,310,10,True,True,True,False,True,False,UP,UP,348,347
20,380,20,370,20,60,UP,EQUAL,320,310,10,True,True,True,False,True,False,UP,UP,348,347
20,370,20,360,20,60,UP,EQUAL,310,300,10,True,True,True,False,True,False,UP,UP,347,346
20,370,20,360,20,60,UP,EQUAL,310,300,10,True,True,True,False,True,False,UP,UP,347,346
20,360,20,350,20,60,UP,EQUAL,300,290,10,True,True,True,False,True,False,UP,UP,346,345
20,360,20,350,20,60,UP,EQUAL,300,290,10,True,True,True,False,True,False,UP,UP,346,345
20,350,20,340,20,60,UP,EQUAL,290,280,10,True,True,True,False,True,False,UP,UP,345,344
20,350,20,340,20,60,UP,EQUAL,290,280,10,True,True,True,False,True,False,UP,UP,345,344
20,340,20,330,20,60,UP,EQUAL,280,270,10,True,True,True,False,True,False,UP,UP,344,343
20,340,20,330,20,60,UP,EQUAL,280,270,10,True,True,True,False,True,False,UP,UP,344,343
20,330,20,320,20,60,UP,EQUAL,270,260,10,True,True,True,False,True,False,UP,UP,343,342
20,330,20,320,20,60,UP,EQUAL,270,260,10,True,True,True,False,True,False,UP,UP,343,342
20,320,20,310,20,60,UP,EQUAL,260,250,10,True,True,True,False,True,False,UP,UP,342,341
20,320,20,310,20,60,UP,EQUAL,260,250,10,True,True,True,False,True,False,UP,UP,342,341
20,310,20,300,20,60,UP,EQUAL,250,240,10,True,True,True,False,True,False,UP,UP,341,340
20,310,20,300,20,60,UP,EQUAL,250,240,10,True,True,True,False,True,False,UP,UP,341,340
20,300,20,290,20,60,UP,EQUAL,240,230,10,True,True,True,False,True,False,UP,UP,340,339
20,300,20,290,20,60,UP,EQUAL,240,230,10,True,True,True,False,True,False,UP,UP,340,339
20,290,20,280,20,60,UP,EQUAL,230,220,10,True,True,True,False,True,False,UP,UP,339,338
20,290,20,280,20,60,UP,EQUAL,230,220,10,True,True,True,False,True,False,UP,UP,339,338
20,280,20,270,20,60,UP,EQUAL,220,210,10,True,True,True,False,True,False,UP,UP,338,337
20,280,20,270,20,60,UP,EQUAL,220,210,10,True,True,True,False,True,False,UP,UP,338,337
20,270,20,260,20,60,UP,EQUAL,210,200,10,True,True,True,False,True,False,UP,UP,337,336
20,270,20,260,20,60,UP,EQUAL,210,200,10,True,True,True,False,True,False,UP,UP,337,336
20,260,20,250,20,60,UP,EQUAL,200,190,10,True,True,True,False,True,False,UP,UP,336,335
20,260,20,250,20,60,UP,EQUAL,200,190,10,True,True,True,False,True,False,UP,UP,336,335
20,250,20,240,20,60,UP,EQUAL,190,180,10,True,True,True,False,True,False,UP,UP,335,334
20,250,20,240,20,60,UP,EQUAL,190,180,10,True,True,True,False,True,False,UP,UP,335,334
20,240,20,230,20,60,UP,EQUAL,180,170,10,True,True,True,False,True,False,UP,UP,334,333
20,240,20,230,20,60,UP,EQUAL,180,170,10,True,True,True,False,True,False,UP,UP,334,333
20,230,20,220,20,60,UP,EQUAL,170,160,10,True,True,True,False,True,False,UP,UP,333,332
20,230,20,220,20,60,UP,EQUAL,170,160,10,True,True,True,False,True,False,UP,UP,333,332
20,220,20,210,20,60,UP,EQUAL,160,150,10,True,True,True,False,True,False,UP,UP,332,331
20,220,20,210,20,60,UP,EQUAL,160,150,10,True,True,True,False,True,False,UP,UP,332,331
20,210,20,200,20,60,UP,EQUAL,150,140,10,True,True,True,False,True,False,UP,UP,331,330
20,210,20,200,20,60,UP,EQUAL,150,140,10,True,True,True,False,True,False,UP,UP,331,330
20,200,20,190,20,60,UP,EQUAL,140,130,10,True,True,True,False,True,False,UP,UP,330,329
20,200,20,190,20,60,UP,EQUAL,140,130,10,True,True,True,False,True,False,UP,UP,330,329
20,190,20,180,20,60,UP,EQUAL,130,120,10,True,True,True,False,True,False,UP,UP,329,328
20,190,20,180,20,60,UP,EQUAL,130,120,10,True,True,True,False,True,False,UP,UP,329,328
20,180,20,170,20,60,UP,EQUAL,120,110,10,True,True,True,False,True,False,UP,UP,328,327
20,180,20,170,20,60,UP,EQUAL,120,110,10,True,True,True,False,True,False,UP,UP,328,327
20,170,20,160,20,60,UP,EQUAL,110,100,10,True,True,True,False,True,False,UP,UP,327,326
20,170,20,160,20,60,UP,EQUAL,110,100,10,True,True,True,False,True,False,UP,UP,327,326
20,160,20,150,20,60,UP,EQUAL,100,90,10,True,True,True,False,True,False,UP,UP,326,325
20,160,20,150,20,60,UP,EQUAL,100,90,10,True,True,True,False,True,False,UP,UP,326,325
20,150,20,140,20,60,UP,EQUAL,90,80,10,True,True,True,False,True,False,UP,UP,325,324
20,150,20,140,20,60,UP,EQUAL,90,80,10,True,True,True,False,True,False,UP,UP,325,324
20,140,20,130,20,60,UP,EQUAL,80,70,10,True,True,True,False,True,False,UP,UP,324,323
20,140,20,130,20,60,UP,EQUAL,80,70,10,True,True,True,False,True,False,UP,UP,324,323
20,130,20,120,20,60,UP,EQUAL,70,60,10,True,True,True,False,True,False,UP,UP,323,322
20,130,20,120,20,60,UP,EQUAL,70,60,10,True,True,True,False,True,False,UP,UP,323,322
20,120,20,110,20,60,UP,EQUAL,60,50,10,True,True,True,False,True,False,UP,UP,322,321
20,120,20,110,20,60,UP,EQUAL,60,50,10,True,True,True,False,True,False,UP,UP,322,321
20,110,20,100,20,60,UP,EQUAL,50,40,10,True,True,True,False,True,False,UP,UP,321,320
20,110,20,100,20,60,UP,EQUAL,50,40,10,True,True,True,False,True,False,UP,UP,321,320
20,100,20,90,20,60,UP,EQUAL,40,30,10,True,True,True,False,True,False,UP,UP,320,319
20,100,20,90,20,60,UP,EQUAL,40,30,10,True,True,True,False,True,False,UP,UP,320,319
20,90,20,80,20,60,UP,EQUAL,30,20,10,True,True,True,False,True,False,UP,UP,319,318
20,90,20,80,20,60,UP,EQUAL,30,20,10,True,True,True,False,True,False,UP,UP,319,318
20,80,20,70,20,60,UP,EQUAL,20,10,10,True,True,True,False,True,False,UP,UP,318,317
20,80,20,70,20,60,UP,EQUAL,20,10,10,True,True,True,False,True,False,UP,UP,318,317
20,70,20,60,20,60,UP,EQUAL,10,0,10,True,True,True,False,True,False,UP,UP,317,417
20,70,20,60,20,60,UP,EQUAL,10,0,10,True,True,True,False,True,False,UP,UP,317,417
20,60,20,50,250,10,EQUAL,EQUAL,280,270,11,True,True,True,False,True,False,UP,UP,417,416
20,60,20,50,250,10,EQUAL,EQUAL,280,270,11,True,True,True,False,True,False,UP,UP,417,416
20,50,20,40,250,10,UP,RIGHT,270,260,11,True,True,True,False,True,False,UP,UP,416,415
20,50,20,40,250,10,UP,RIGHT,270,260,11,True,True,True,False,True,False,UP,UP,416,415
20,40,30,40,250,10,UP,RIGHT,260,250,11,True,True,True,False,True,False,UP,RIGHT,415,414
20,40,30,40,250,10,UP,RIGHT,260,250,11,True,True,True,False,True,False,RIGHT,RIGHT,415,414
30,40,40,40,250,10,UP,RIGHT,250,240,11,True,False,True,True,True,False,RIGHT,RIGHT,414,413
30,40,40,40,250,10,UP,RIGHT,250,240,11,True,False,True,True,True,False,RIGHT,RIGHT,414,413
40,40,50,40,250,10,UP,RIGHT,240,230,11,True,False,True,True,True,False,RIGHT,RIGHT,413,412
40,40,50,40,250,10,UP,RIGHT,240,230,11,True,False,True,True,True,False,RIGHT,RIGHT,413,412
50,40,60,40,250,10,UP,RIGHT,230,220,11,True,False,True,True,True,False,RIGHT,RIGHT,412,411
50,40,60,40,250,10,UP,RIGHT,230,220,11,True,False,True,True,True,False,RIGHT,RIGHT,412,411
60,40,70,40,250,10,UP,RIGHT,220,210,11,True,False,True,True,True,False,RIGHT,RIGHT,411,410
60,40,70,40,250,10,UP,RIGHT,220,210,11,True,False,True,True,True,False,RIGHT,RIGHT,411,410
70,40,80,40,250,10,UP,RIGHT,210,200,11,True,False,True,True,True,False,RIGHT,RIGHT,410,409
70,40,80,40,250,10,UP,RIGHT,210,200,11,True,False,True,True,True,False,RIGHT,RIGHT,410,409
80,40,90,40,250,10,UP,RIGHT,200,190,11,True,False,True,True,True,False,RIGHT,RIGHT,409,408
80,40,90,40,250,10,UP,RIGHT,200,190,11,True,False,True,True,True,False,RIGHT,RIGHT,409,408
90,40,100,40,250,10,UP,RIGHT,190,180,11,True,False,True,True,True,False,RIGHT,RIGHT,408,407
90,40,100,40,250,10,UP,RIGHT,190,180,11,True,False,True,True,True,False,RIGHT,RIGHT,408,407
100,40,100,30,250,10,UP,RIGHT,180,170,11,True,False,True,True,True,False,RIGHT,UP,407,406
100,40,100,30,250,10,UP,RIGHT,180,170,11,True,False,True,True,False,False,UP,UP,407,406
100,30,100,20,250,10,UP,RIGHT,170,160,11,True,True,True,False,False,False,UP,UP,406,405
100,30,100,20,250,10,UP,RIGHT,170,160,11,True,True,True,False,False,False,UP,UP,406,405
100,20,100,10,250,10,UP,RIGHT,160,150,11,True,True,True,False,False,False,UP,UP,405,404
100,20,100,10,250,10,UP,RIGHT,160,150,11,True,True,True,False,False,False,UP,UP,405,404
100,10,110,10,250,10,EQUAL,RIGHT,150,140,11,True,True,True,False,False,False,UP,RIGHT,404,403
100,10,110,10,250,10,EQUAL,RIGHT,150,140,11,True,True,True,False,False,False,RIGHT,RIGHT,404,403
110,10,120,10,250,10,EQUAL,RIGHT,140,130,11,True,False,True,True,False,False,RIGHT,RIGHT,403,402
110,10,120,10,250,10,EQUAL,RIGHT,140,130,11,True,False,True,True,False,False,RIGHT,RIGHT,403,402
120,10,130,10,250,10,EQUAL,RIGHT,130,120,11,True,False,True,True,False,False,RIGHT,RIGHT,402,401
120,10,130,10,250,10,EQUAL,RIGHT,130,120,11,True,False,True,True,False,False,RIGHT,RIGHT,402,401
130,10,140,10,250,10,EQUAL,RIGHT,120,110,11,True,False,True,True,False,False,RIGHT,RIGHT,401,400
130,10,140,10,250,10,EQUAL,RIGHT,120,110,11,True,False,True,True,False,False,RIGHT,RIGHT,401,400
140,10,150,10,250,10,EQUAL,RIGHT,110,100,11,True,False,True,True,False,False,RIGHT,RIGHT,400,399
140,10,150,10,250,10,EQUAL,RIGHT,110,100,11,True,False,True,True,False,False,RIGHT,RIGHT,400,399
150,10,160,10,250,10,EQUAL,RIGHT,100,90,11,True,False,True,True,False,False,RIGHT,RIGHT,399,398
150,10,160,10,250,10,EQUAL,RIGHT,100,90,11,True,False,True,True,False,False,RIGHT,RIGHT,399,398
160,10,170,10,250,10,EQUAL,RIGHT,90,80,11,True,False,True,True,False,False,RIGHT,RIGHT,398,397
160,10,170,10,250,10,EQUAL,RIGHT,90,80,11,True,False,True,True,False,False,RIGHT,RIGHT,398,397
170,10,180,10,250,10,EQUAL,RIGHT,80,70,11,True,False,True,True,False,False,RIGHT,RIGHT,397,396
170,10,180,10,250,10,EQUAL,RIGHT,80,70,11,True,False,True,True,False,False,RIGHT,RIGHT,397,396
180,10,190,10,250,10,EQUAL,RIGHT,70,60,11,True,False,True,True,False,False,RIGHT,RIGHT,396,395
180,10,190,10,250,10,EQUAL,RIGHT,70,60,11,True,False,True,True,False,False,RIGHT,RIGHT,396,395
190,10,200,10,250,10,EQUAL,RIGHT,60,50,11,True,False,True,True,False,False,RIGHT,RIGHT,395,394
190,10,200,10,250,10,EQUAL,RIGHT,60,50,11,True,False,True,True,False,False,RIGHT,RIGHT,395,394
200,10,210,10,250,10,EQUAL,RIGHT,50,40,11,True,False,True,True,False,False,RIGHT,RIGHT,394,393
200,10,210,10,250,10,EQUAL,RIGHT,50,40,11,True,False,True,True,False,False,RIGHT,RIGHT,394,393
210,10,220,10,250,10,EQUAL,RIGHT,40,30,11,True,False,True,True,False,False,RIGHT,RIGHT,393,392
210,10,220,10,250,10,EQUAL,RIGHT,40,30,11,True,False,True,True,False,False,RIGHT,RIGHT,393,392
220,10,230,10,250,10,EQUAL,RIGHT,30,20,11,True,False,True,True,False,False,RIGHT,RIGHT,392,391
220,10,230,10,250,10,EQUAL,RIGHT,30,20,11,True,False,True,True,False,False,RIGHT,RIGHT,392,391
230,10,240,10,250,10,EQUAL,RIGHT,20,10,11,True,False,True,True,False,False,RIGHT,RIGHT,391,390
230,10,240,10,250,10,EQUAL,RIGHT,20,10,11,True,False,True,True,False,False,RIGHT,RIGHT,391,390
240,10,250,10,250,10,EQUAL,RIGHT,10,0,11,True,False,True,True,False,False,RIGHT,RIGHT,390,490
240,10,250,10,250,10,EQUAL,RIGHT,10,0,11,True,False,True,True,False,False,RIGHT,RIGHT,390,490
250,10,260,10,440,80,EQUAL,EQUAL,260,250,12,True,False,True,True,False,False,RIGHT,RIGHT,490,489
250,10,260,10,440,80,EQUAL,EQUAL,260,250,12,True,False,True,True,False,False,RIGHT,RIGHT,490,489
260,10,270,10,440,80,DOWN,RIGHT,250,240,12,True,False,True,True,False,False,RIGHT,RIGHT,489,488
260,10,270,10,440,80,DOWN,RIGHT,250,240,12,True,False,True,True,False,False,RIGHT,RIGHT,489,488
270,10,280,10,440,80,DOWN,RIGHT,240,230,12,True,False,True,True,False,False,RIGHT,RIGHT,488,487
270,10,280,10,440,80,DOWN,RIGHT,240,230,12,True,False,True,True,False,False,RIGHT,RIGHT,488,487
280,10,290,10,440,80,DOWN,RIGHT,230,220,12,True,False,True,True,False,False,RIGHT,RIGHT,487,486
280,10,290,10,440,80,DOWN,RIGHT,230,220,12,True,False,True,True,False,False,RIGHT,RIGHT,487,486
290,10,300,10,440,80,DOWN,RIGHT,220,210,12,True,False,True,True,False,False,RIGHT,RIGHT,486,485
290,10,300,10,440,80,DOWN,RIGHT,220,210,12,True,False,True,True,False,False,RIGHT,RIGHT,486,485
300,10,310,10,440,80,DOWN,RIGHT,210,200,12,True,False,True,True,False,False,RIGHT,RIGHT,485,484
300,10,310,10,440,80,DOWN,RIGHT,210,200,12,True,False,True,True,False,False,RIGHT,RIGHT,485,484
310,10,320,10,440,80,DOWN,RIGHT,200,190,12,True,False,True,True,False,False,RIGHT,RIGHT,484,483
310,10,320,10,440,80,DOWN,RIGHT,200,190,12,True,False,True,True,False,False,RIGHT,RIGHT,484,483
320,10,330,10,440,80,DOWN,RIGHT,190,180,12,True,False,True,True,False,False,RIGHT,RIGHT,483,482
320,10,330,10,440,80,DOWN,RIGHT,190,180,12,True,False,True,True,False,False,RIGHT,RIGHT,483,482
330,10,340,10,440,80,DOWN,RIGHT,180,170,12,True,False,True,True,False,False,RIGHT,RIGHT,482,481
330,10,340,10,440,80,DOWN,RIGHT,180,170,12,True,False,True,True,False,False,RIGHT,RIGHT,482,481
340,10,350,10,440,80,DOWN,RIGHT,170,160,12,True,False,True,True,False,False,RIGHT,RIGHT,481,480
340,10,350,10,440,80,DOWN,RIGHT,170,160,12,True,False,True,True,False,False,RIGHT,RIGHT,481,480
350,10,360,10,440,80,DOWN,RIGHT,160,150,12,True,False,True,True,False,False,RIGHT,RIGHT,480,479
350,10,360,10,440,80,DOWN,RIGHT,160,150,12,True,False,True,True,False,False,RIGHT,RIGHT,480,479
360,10,370,10,440,80,DOWN,RIGHT,150,140,12,True,False,True,True,False,False,RIGHT,RIGHT,479,478
360,10,370,10,440,80,DOWN,RIGHT,150,140,12,True,False,True,True,False,False,RIGHT,RIGHT,479,478
370,10,380,10,440,80,DOWN,RIGHT,140,130,12,True,False,True,True,False,False,RIGHT,RIGHT,478,477
370,10,380,10,440,80,DOWN,RIGHT,140,130,12,True,False,True,True,False,False,RIGHT,RIGHT,478,477
380,10,390,10,440,80,DOWN,RIGHT,130,120,12,True,False,True,True,False,False,RIGHT,RIGHT,477,476
380,10,390,10,440,80,DOWN,RIGHT,130,120,12,True,False,True,True,False,False,RIGHT,RIGHT,477,476
390,10,400,10,440,80,DOWN,RIGHT,120,110,12,True,False,True,True,False,False,RIGHT,RIGHT,476,475
390,10,400,10,440,80,DOWN,RIGHT,120,110,12,True,False,True,True,False,False,RIGHT,RIGHT,476,475
400,10,410,10,440,80,DOWN,RIGHT,110,100,12,True,False,True,True,False,False,RIGHT,RIGHT,475,474
400,10,410,10,440,80,DOWN,RIGHT,110,100,12,True,False,True,True,False,False,RIGHT,RIGHT,475,474
410,10,420,10,440,80,DOWN,RIGHT,100,90,12,True,False,True,True,False,False,RIGHT,RIGHT,474,473
410,10,420,10,440,80,DOWN,RIGHT,100,90,12,True,False,True,True,False,False,RIGHT,RIGHT,474,473
420,10,430,10,440,80,DOWN,RIGHT,90,80,12,True,False,True,True,False,False,RIGHT,RIGHT,473,472
420,10,430,10,440,80,DOWN,RIGHT,90,80,12,True,False,True,True,False,False,RIGHT,RIGHT,473,472
430,10,440,10,440,80,DOWN,RIGHT,80,70,12,True,False,True,True,False,False,RIGHT,RIGHT,472,471
430,10,440,10,440,80,DOWN,RIGHT,80,70,12,True,False,True,True,False,False,RIGHT,RIGHT,472,471
440,10,440,20,440,80,DOWN,EQUAL,70,60,12,True,False,True,True,False,False,RIGHT,DOWN,471,470
440,10,440,20,440,80,DOWN,EQUAL,70,60,12,True,False,True,True,False,False,DOWN,DOWN,471,470
440,20,440,30,440,80,DOWN,EQUAL,60,50,12,True,True,False,True,False,False,DOWN,DOWN,470,469
440,20,440,30,440,80,DOWN,EQUAL,60,50,12,True,True,False,True,False,False,DOWN,DOWN,470,469
440,30,440,40,440,80,DOWN,EQUAL,50,40,12,True,True,False,True,False,False,DOWN,DOWN,469,468
440,30,440,40,440,80,DOWN,EQUAL,50,40,12,True,True,False,True,False,False,DOWN,DOWN,469,468
440,40,440,50,440,80,DOWN,EQUAL,40,30,12,True,True,False,True,False,False,DOWN,DOWN,468,467
440,40,440,50,440,80,DOWN,EQUAL,40,30,12,True,True,False,True,False,False,DOWN,DOWN,468,467
440,50,440,60,440,80,DOWN,EQUAL,30,20,12,True,True,False,True,False,False,DOWN,DOWN,467,466
440,50,440,60,440,80,DOWN,EQUAL,30,20,12,True,True,False,True,False,False,DOWN,DOWN,467,466
440,60,440,70,440,80,DOWN,EQUAL,20,10,12,True,True,False,True,False,False,DOWN,DOWN,466,465
440,60,440,70,440,80,DOWN,EQUAL,20,10,12,True,True,False,True,False,False,DOWN,DOWN,466,465
440,70,440,80,440,80,DOWN,EQUAL,10,0,12,True,True,False,True,False,False,DOWN,DOWN,465,565
440,70,440,80,440,80,DOWN,EQUAL,10,0,12,True,True,False,True,False,False,DOWN,DOWN,465,565
440,80,440,90,410,310,EQUAL,EQUAL,260,250,13,True,True,False,True,False,False,DOWN,DOWN,565,564
440,80,440,90,410,310,EQUAL,EQUAL,260,250,13,True,True,False,True,False,False,DOWN,DOWN,565,564
440,90,440,100,410,310,DOWN,LEFT,250,240,13,True,True,False,True,False,False,DOWN,DOWN,564,563
440,90,440,100,410,310,DOWN,LEFT,250,240,13,True,True,False,True,False,False,DOWN,DOWN,564,563
440,100,440,110,410,310,DOWN,LEFT,240,230,13,True,True,False,True,False,False,DOWN,DOWN,563,562
440,100,440,110,410,310,DOWN,LEFT,240,230,13,True,True,False,True,False,False,DOWN,DOWN,563,562
440,110,440,120,410,310,DOWN,LEFT,230,220,13,True,True,False,True,False,False,DOWN,DOWN,562,561
440,110,440,120,410,310,DOWN,LEFT,230,220,13,True,True,False,True,False,False,DOWN,DOWN,562,561
440,120,440,130,410,310,DOWN,LEFT,220,210,13,True,True,False,True,False,False,DOWN,DOWN,561,560
440,120,440,130,410,310,DOWN,LEFT,220,210,13,True,True,False,True,False,False,DOWN,DOWN,561,560
440,130,440,140,410,310,DOWN,LEFT,210,200,13,True,True,False,True,False,False,DOWN,DOWN,560,559
440,130,440,140,410,310,DOWN,LEFT,210,200,13,True,True,False,True,False,False,DOWN,DOWN,560,559
440,140,440,150,410,310,DOWN,LEFT,200,190,13,True,True,False,True,False,False,DOWN,DOWN,559,558
440,140,440,150,410,310,DOWN,LEFT,200,190,13,True,True,False,True,False,False,DOWN,DOWN,559,558
440,150,440,160,410,310,DOWN,LEFT,190,180,13,True,True,False,True,False,False,DOWN,DOWN,558,557
440,150,440,160,410,310,DOWN,LEFT,190,180,13,True,True,False,True,False,False,DOWN,DOWN,558,557
440,160,440,170,410,310,DOWN,LEFT,180,170,13,True,True,False,True,False,False,DOWN,DOWN,557,556
440,160,440,170,410,310,DOWN,LEFT,180,170,13,True,True,False,True,False,False,DOWN,DOWN,557,556
440,170,440,180,410,310,DOWN,LEFT,170,160,13,True,True,False,True,False,False,DOWN,DOWN,556,555
440,170,440,180,410,310,DOWN,LEFT,170,160,13,True,True,False,True,False,False,DOWN,DOWN,556,555
440,180,440,190,410,310,DOWN,LEFT,160,150,13,True,True,False,True,False,False,DOWN,DOWN,555,554
440,180,440,190,410,310,DOWN,LEFT,160,150,13,True,True,False,True,False,False,DOWN,DOWN,555,554
440,190,440,200,410,310,DOWN,LEFT,150,140,13,True,True,False,True,False,False,DOWN,DOWN,554,553
440,190,440,200,410,310,DOWN,LEFT,150,140,13,True,True,False,True,False,False,DOWN,DOWN,554,553
440,200,440,210,410,310,DOWN,LEFT,140,130,13,True,True,False,True,False,False,DOWN,DOWN,553,552
440,200,440,210,410,310,DOWN,LEFT,140,130,13,True,True,False,True,False,False,DOWN,DOWN,553,552
440,210,440,220,410,310,DOWN,LEFT,130,120,13,True,True,False,True,False,False,DOWN,DOWN,552,551
440,210,440,220,410,310,DOWN,LEFT,130,120,13,True,True,False,True,False,False,DOWN,DOWN,552,551
440,220,440,230,410,310,DOWN,LEFT,120,110,13,True,True,False,True,False,False,DOWN,DOWN,551,550
440,220,440,230,410,310,DOWN,LEFT,120,110,13,True,True,False,True,False,False,DOWN,DOWN,551,550
440,230,440,240,410,310,DOWN,LEFT,110,100,13,True,True,False,True,False,False,DOWN,DOWN,550,549
440,230,440,240,410,310,DOWN,LEFT,110,100,13,True,True,False,True,False,False,DOWN,DOWN,550,549
440,240,440,250,410,310,DOWN,LEFT,100,90,13,True,True,False,True,False,False,DOWN,DOWN,549,548
440,240,440,250,410,310,DOWN,LEFT,100,90,13,True,True,False,True,False,False,DOWN,DOWN,549,548
440,250,440,260,410,310,DOWN,LEFT,90,80,13,True,True,False,True,False,False,DOWN,DOWN,548,547
440,250,440,260,410,310,DOWN,LEFT,90,80,13,True,True,False,True,False,False,DOWN,DOWN,548,547
440,260,440,270,410,310,DOWN,LEFT,80,70,13,True,True,False,True,False,False,DOWN,DOWN,547,546
440,260,440,270,410,310,DOWN,LEFT,80,70,13,True,True,False,True,False,False,DOWN,DOWN,547,546
440,270,440,280,410,310,DOWN,LEFT,70,60,13,True,True,False,True,False,False,DOWN,DOWN,546,545
440,270,440,280,410,310,DOWN,LEFT,70,60,13,True,True,False,True,False,False,DOWN,DOWN,546,545
440,280,440,290,410,310,DOWN,LEFT,60,50,13,True,True,False,True,False,False,DOWN,DOWN,545,544
440,280,440,290,410,310,DOWN,LEFT,60,50,13,True,True,False,True,False,False,DOWN,DOWN,545,544
440,290,440,300,410,310,DOWN,LEFT,50,40,13,True,True,False,True,False,False,DOWN,DOWN,544,543
440,290,440,300,410,310,DOWN,LEFT,50,40,13,True,True,False,True,False,False,DOWN,DOWN,544,543
440,300,440,310,410,310,DOWN,LEFT,40,30,13,True,True,False,True,False,False,DOWN,DOWN,543,542
440,300,440,310,410,310,DOWN,LEFT,40,30,13,True,True,False,True,False,False,DOWN,DOWN,543,542
440,310,430,310,410,310,EQUAL,LEFT,30,20,13,True,True,False,True,False,False,DOWN,LEFT,542,541
440,310,430,310,410,310,EQUAL,LEFT,30,20,13,True,True,False,True,True,False,LEFT,LEFT,542,541
430,310,420,310,410,310,EQUAL,LEFT,20,10,13,False,True,True,True,True,False,LEFT,LEFT,541,540
430,310,420,310,410,310,EQUAL,LEFT,20,10,13,False,True,True,True,True,False,LEFT,LEFT,541,540
420,310,410,310,410,310,EQUAL,LEFT,10,0,13,False,True,True,True,True,False,LEFT,LEFT,540,640
420,310,410,310,410,310,EQUAL,LEFT,10,0,13,False,True,True,True,True,False,LEFT,LEFT,540,640
410,310,400,310,410,210,EQUAL,EQUAL,100,110,14,False,True,True,True,True,False,LEFT,LEFT,640,639
410,310,400,310,410,210,EQUAL,EQUAL,100,110,14,False,True,True,True,True,False,LEFT,LEFT,640,639
400,310,390,310,410,210,UP,RIGHT,110,120,14,False,True,True,True,True,False,LEFT,LEFT,639,638
400,310,390,310,410,210,UP,RIGHT,110,120,14,False,True,True,True,True,False,LEFT,LEFT,639,638
390,310,380,310,410,210,UP,RIGHT,120,130,14,False,True,True,True,True,False,LEFT,LEFT,638,637
390,310,380,310,410,210,UP,RIGHT,120,130,14,False,True,True,True,True,False,LEFT,LEFT,638,637
380,310,370,310,410,210,UP,RIGHT,130,140,14,False,True,True,True,True,False,LEFT,LEFT,637,636
380,310,370,310,410,210,UP,RIGHT,130,140,14,False,True,True,True,True,False,LEFT,LEFT,637,636
370,310,360,310,410,210,UP,RIGHT,140,150,14,False,True,True,True,True,False,LEFT,LEFT,636,635
370,310,360,310,410,210,UP,RIGHT,140,150,14,False,True,True,True,True,False,LEFT,LEFT,636,635
360,310,360,300,410,210,UP,RIGHT,150,140,14,False,True,True,True,True,False,LEFT,UP,635,634
360,310,360,300,410,210,UP,RIGHT,150,140,14,False,True,True,True,True,False,UP,UP,635,634
360,300,360,290,410,210,UP,RIGHT,140,130,14,True,True,True,False,True,False,UP,UP,634,633
360,300,360,290,410,210,UP,RIGHT,140,130,14,True,True,True,False,True,False,UP,UP,634,633
360,290,360,280,410,210,UP,RIGHT,130,120,14,True,True,True,False,True,False,UP,UP,633,632
360,290,360,280,410,210,UP,RIGHT,130,120,14,True,True,True,False,True,False,UP,UP,633,632
360,280,370,280,410,210,UP,RIGHT,120,110,14,True,True,True,False,True,False,UP,RIGHT,632,631
360,280,370,280,410,210,UP,RIGHT,120,110,14,True,True,True,False,True,False,RIGHT,RIGHT,632,631
370,280,380,280,410,210,UP,RIGHT,110,100,14,True,False,True,True,True,False,RIGHT,RIGHT,631,630
370,280,380,280,410,210,UP,RIGHT,110,100,14,True,False,True,True,True,False,RIGHT,RIGHT,631,630
380,280,390,280,410,210,UP,RIGHT,100,90,14,True,False,True,True,True,False,RIGHT,RIGHT,630,629
380,280,390,280,410,210,UP,RIGHT,100,90,14,True,False,True,True,True,False,RIGHT,RIGHT,630,629
390,280,400,280,410,210,UP,RIGHT,90,80,14,True,False,True,True,True,False,RIGHT,RIGHT,629,628
390,280,400,280,410,210,UP,RIGHT,90,80,14,True,False,True,True,True,False,RIGHT,RIGHT,629,628
400,280,410,280,410,210,UP,RIGHT,80,70,14,True,False,True,True,True,False,RIGHT,RIGHT,628,627
400,280,410,280,410,210,UP,RIGHT,80,70,14,True,False,True,True,True,False,RIGHT,RIGHT,628,627
410,280,420,280,410,210,UP,EQUAL,70,80,14,True,False,True,True,True,False,RIGHT,RIGHT,627,626
410,280,420,280,410,210,UP,EQUAL,70,80,14,True,False,True,True,True,False,RIGHT,RIGHT,627,626
420,280,420,270,410,210,UP,LEFT,80,70,14,True,False,True,True,True,False,RIGHT,UP,626,625
420,280,420,270,410,210,UP,LEFT,80,70,14,True,False,True,True,False,False,UP,UP,626,625
420,270,420,260,410,210,UP,LEFT,70,60,14,True,True,True,False,False,False,UP,UP,625,624
420,270,420,260,410,210,UP,LEFT,70,60,14,True,True,True,False,False,False,UP,UP,625,624
420,260,420,250,410,210,UP,LEFT,60,50,14,True,True,True,False,False,False,UP,UP,624,623
420,260,420,250,410,210,UP,LEFT,60,50,14,True,True,True,False,False,False,UP,UP,624,623
420,250,420,240,410,210,UP,LEFT,50,40,14,True,True,True,False,False,False,UP,UP,623,622
420,250,420,240,410,210,UP,LEFT,50,40,14,True,True,True,False,False,False,UP,UP,623,622
420,240,420,230,410,210,UP,LEFT,40,30,14,True,True,True,False,False,False,UP,UP,622,621
420,240,420,230,410,210,UP,LEFT,40,30,14,True,True,True,False,False,False,UP,UP,622,621
420,230,420,220,410,210,UP,LEFT,30,20,14,True,True,True,False,False,False,UP,UP,621,620
420,230,420,220,410,210,UP,LEFT,30,20,14,True,True,True,False,False,False,UP,UP,621,620
420,220,410,220,410,210,UP,LEFT,20,10,14,True,True,True,False,False,False,UP,LEFT,620,619
420,220,410,220,410,210,UP,LEFT,20,10,14,True,True,True,False,False,False,LEFT,LEFT,620,619
410,220,400,220,410,210,UP,EQUAL,10,20,14,False,True,True,True,False,False,LEFT,LEFT,619,618
410,220,400,220,410,210,UP,EQUAL,10,20,14,False,True,True,True,False,False,LEFT,LEFT,619,618
400,220,390,220,410,210,UP,RIGHT,20,30,14,False,True,True,True,False,False,LEFT,LEFT,618,617
400,220,390,220,410,210,UP,RIGHT,20,30,14,False,True,True,True,False,False,LEFT,LEFT,618,617
390,220,380,220,410,210,UP,RIGHT,30,40,14,False,True,True,True,False,False,LEFT,LEFT,617,616
390,220,380,220,410,210,UP,RIGHT,30,40,14,False,True,True,True,False,False,LEFT,LEFT,617,616
380,220,370,220,410,210,UP,RIGHT,40,50,14,False,True,True,True,False,False,LEFT,LEFT,616,615
380,220,370,220,410,210,UP,RIGHT,40,50,14,False,True,True,True,False,False,LEFT,LEFT,616,615
370,220,360,220,410,210,UP,RIGHT,50,60,14,False,True,True,True,False,False,LEFT,LEFT,615,614
370,220,360,220,410,210,UP,RIGHT,50,60,14,False,True,True,True,False,False,LEFT,LEFT,615,614
360,220,360,210,410,210,UP,RIGHT,60,50,14,False,True,True,True,False,False,LEFT,UP,614,613
360,220,360,210,410,210,UP,RIGHT,60,50,14,False,True,True,True,False,False,UP,UP,614,613
360,210,360,200,410,210,EQUAL,RIGHT,50,60,14,True,True,True,False,False,False,UP,UP,613,612
360,210,360,200,410,210,EQUAL,RIGHT,50,60,14,True,True,True,False,False,False,UP,UP,613,612
360,200,370,200,410,210,DOWN,RIGHT,60,50,14,True,True,True,False,False,False,UP,RIGHT,612,611
360,200,370,200,410,210,DOWN,RIGHT,60,50,14,True,True,True,False,False,False,RIGHT,RIGHT,612,611
370,200,380,200,410,210,DOWN,RIGHT,50,40,14,True,False,True,True,False,False,RIGHT,RIGHT,611,610
370,200,380,200,410,210,DOWN,RIGHT,50,40,14,True,False,True,True,False,False,RIGHT,RIGHT,611,610
380,200,390,200,410,210,DOWN,RIGHT,40,30,14,True,False,True,True,False,False,RIGHT,RIGHT,610,609
380,200,390,200,410,210,DOWN,RIGHT,40,30,14,True,False,True,True,False,False,RIGHT,RIGHT,610,609
390,200,400,200,410,210,DOWN,RIGHT,30,20,14,True,False,True,True,False,False,RIGHT,RIGHT,609,608
390,200,400,200,410,210,DOWN,RIGHT,30,20,14,True,False,True,True,False,False,RIGHT,RIGHT,609,608
400,200,410,200,410,210,DOWN,RIGHT,20,10,14,True,False,True,True,False,False,RIGHT,RIGHT,608,607
400,200,410,200,410,210,DOWN,RIGHT,20,10,14,True,False,True,True,False,False,RIGHT,RIGHT,608,607
410,200,420,200,410,210,DOWN,EQUAL,10,20,14,True,False,True,True,False,False,RIGHT,RIGHT,607,606
410,200,420,200,410,210,DOWN,EQUAL,10,20,14,True,False,True,True,False,False,RIGHT,RIGHT,607,606
420,200,430,200,410,210,DOWN,LEFT,20,30,14,True,False,True,True,False,False,RIGHT,RIGHT,606,605
420,200,430,200,410,210,DOWN,LEFT,20,30,14,True,False,True,True,False,False,RIGHT,RIGHT,606,605
430,200,440,200,410,210,DOWN,LEFT,30,40,14,True,False,True,True,False,False,RIGHT,RIGHT,605,604
430,200,440,200,410,210,DOWN,LEFT,30,40,14,True,False,True,True,False,False,RIGHT,RIGHT,605,604
440,200,450,200,410,210,DOWN,LEFT,40,50,14,True,False,True,True,False,False,RIGHT,RIGHT,604,603
440,200,450,200,410,210,DOWN,LEFT,40,50,14,True,False,True,True,False,False,RIGHT,RIGHT,604,603
450,200,450,210,410,210,DOWN,LEFT,50,40,14,True,False,True,True,False,False,RIGHT,DOWN,603,602
450,200,450,210,410,210,DOWN,LEFT,50,40,14,True,False,True,True,True,False,DOWN,DOWN,603,602
450,210,440,210,410,210,EQUAL,LEFT,40,30,14,True,True,False,True,True,True,DOWN,LEFT,602,601
450,210,440,210,410,210,EQUAL,LEFT,40,30,14,True,True,False,True,True,True,LEFT,LEFT,602,601
440,210,430,210,410,210,EQUAL,LEFT,30,20,14,False,True,False,True,True,True,LEFT,LEFT,601,600
440,210,430,210,410,210,EQUAL,LEFT,30,20,14,False,True,False,True,True,True,LEFT,LEFT,601,600
430,210,420,210,410,210,EQUAL,LEFT,20,10,14,False,True,False,True,True,True,LEFT,LEFT,600,599
430,210,420,210,410,210,EQUAL,LEFT,20,10,14,False,True,False,True,True,True,LEFT,LEFT,600,599
420,210,410,210,410,210,EQUAL,LEFT,10,0,14,False,True,False,True,True,False,LEFT,LEFT,599,699
420,210,410,210,410,210,EQUAL,LEFT,10,0,14,False,True,False,True,True,False,LEFT,LEFT,599,699
410,210,400,210,70,470,EQUAL,EQUAL,600,590,15,False,True,False,True,True,False,LEFT,LEFT,699,698
410,210,400,210,70,470,EQUAL,EQUAL,600,590,15,False,True,False,True,True,False,LEFT,LEFT,699,698
400,210,400,220,70,470,DOWN,LEFT,590,580,15,False,True,False,True,True,False,LEFT,DOWN,698,697
400,210,400,220,70,470,DOWN,LEFT,590,580,15,False,True,False,True,False,False,DOWN,DOWN,698,697
400,220,400,230,70,470,DOWN,LEFT,580,570,15,True,True,False,True,False,False,DOWN,DOWN,697,696
400,220,400,230,70,470,DOWN,LEFT,580,570,15,True,True,False,True,False,False,DOWN,DOWN,697,696
400,230,400,240,70,470,DOWN,LEFT,570,560,15,True,True,False,True,False,False,DOWN,DOWN,696,695
400,230,400,240,70,470,DOWN,LEFT,570,560,15,True,True,False,True,False,False,DOWN,DOWN,696,695
400,240,400,250,70,470,DOWN,LEFT,560,550,15,True,True,False,True,False,False,DOWN,DOWN,695,694
400,240,400,250,70,470,DOWN,LEFT,560,550,15,True,True,False,True,False,False,DOWN,DOWN,695,694
400,250,400,260,70,470,DOWN,LEFT,550,540,15,True,True,False,True,False,False,DOWN,DOWN,694,693
400,250,400,260,70,470,DOWN,LEFT,550,540,15,True,True,False,True,False,False,DOWN,DOWN,694,693
400,260,400,270,70,470,DOWN,LEFT,540,530,15,True,True,False,True,False,False,DOWN,DOWN,693,692
400,260,400,270,70,470,DOWN,LEFT,540,530,15,True,True,False,True,False,False,DOWN,DOWN,693,692
400,270,400,280,70,470,DOWN,LEFT,530,520,15,True,True,False,True,False,False,DOWN,DOWN,692,691
400,270,400,280,70,470,DOWN,LEFT,530,520,15,True,True,False,True,False,False,DOWN,DOWN,692,691
400,280,400,290,70,470,DOWN,LEFT,520,510,15,True,True,False,True,False,False,DOWN,DOWN,691,690
400,280,400,290,70,470,DOWN,LEFT,520,510,15,True,True,False,True,False,False,DOWN,DOWN,691,690
400,290,400,300,70,470,DOWN,LEFT,510,500,15,True,True,False,True,False,False,DOWN,DOWN,690,689
400,290,400,300,70,470,DOWN,LEFT,510,500,15,True,True,False,True,False,False,DOWN,DOWN,690,689
400,300,400,310,70,470,DOWN,LEFT,500,490,15,True,True,False,True,False,False,DOWN,DOWN,689,688
400,300,400,310,70,470,DOWN,LEFT,500,490,15,True,True,False,True,False,False,DOWN,DOWN,689,688
400,310,400,320,70,470,DOWN,LEFT,490,480,15,True,True,False,True,False,False,DOWN,DOWN,688,687
400,310,400,320,70,470,DOWN,LEFT,490,480,15,True,True,False,True,False,False,DOWN,DOWN,688,687
400,320,400,330,70,470,DOWN,LEFT,480,470,15,True,True,False,True,False,False,DOWN,DOWN,687,686
400,320,400,330,70,470,DOWN,LEFT,480,470,15,True,True,False,True,False,False,DOWN,DOWN,687,686
400,330,400,340,70,470,DOWN,LEFT,470,460,15,True,True,False,True,False,False,DOWN,DOWN,686,685
400,330,400,340,70,470,DOWN,LEFT,470,460,15,True,True,False,True,False,False,DOWN,DOWN,686,685
400,340,400,350,70,470,DOWN,LEFT,460,450,15,True,True,False,True,False,False,DOWN,DOWN,685,684
400,340,400,350,70,470,DOWN,LEFT,460,450,15,True,True,False,True,False,False,DOWN,DOWN,685,684
400,350,400,360,70,470,DOWN,LEFT,450,440,15,True,True,False,True,False,False,DOWN,DOWN,684,683
400,350,400,360,70,470,DOWN,LEFT,450,440,15,True,True,False,True,False,False,DOWN,DOWN,684,683
400,360,400,370,70,470,DOWN,LEFT,440,430,15,True,True,False,True,False,False,DOWN,DOWN,683,682
400,360,400,370,70,470,DOWN,LEFT,440,430,15,True,True,False,True,False,False,DOWN,DOWN,683,682
400,370,400,380,70,470,DOWN,LEFT,430,420,15,True,True,False,True,False,False,DOWN,DOWN,682,681
400,370,400,380,70,470,DOWN,LEFT,430,420,15,True,True,False,True,False,False,DOWN,DOWN,682,681
400,380,400,390,70,470,DOWN,LEFT,420,410,15,True,True,False,True,False,False,DOWN,DOWN,681,680
400,380,400,390,70,470,DOWN,LEFT,420,410,15,True,True,False,True,False,False,DOWN,DOWN,681,680
400,390,400,400,70,470,DOWN,LEFT,410,400,15,True,True,False,True,False,False,DOWN,DOWN,680,679
400,390,400,400,70,470,DOWN,LEFT,410,400,15,True,True,False,True,False,False,DOWN,DOWN,680,679
400,400,400,410,70,470,DOWN,LEFT,400,390,15,True,True,False,True,False,False,DOWN,DOWN,679,678
400,400,400,410,70,470,DOWN,LEFT,400,390,15,True,True,False,True,False,False,DOWN,DOWN,679,678
400,410,400,420,70,470,DOWN,LEFT,390,380,15,True,True,False,True,False,False,DOWN,DOWN,678,677
400,410,400,420,70,470,DOWN,LEFT,390,380,15,True,True,False,True,False,False,DOWN,DOWN,678,677
400,420,400,430,70,470,DOWN,LEFT,380,370,15,True,True,False,True,False,False,DOWN,DOWN,677,676
400,420,400,430,70,470,DOWN,LEFT,380,370,15,True,True,False,True,False,False,DOWN,DOWN,677,676
400,430,400,440,70,470,DOWN,LEFT,370,360,15,True,True,False,True,False,False,DOWN,DOWN,676,675
400,430,400,440,70,470,DOWN,LEFT,370,360,15,True,True,False,True,False,False,DOWN,DOWN,676,675
400,440,400,450,70,470,DOWN,LEFT,360,350,15,True,True,False,True,False,False,DOWN,DOWN,675,674
400,440,400,450,70,470,DOWN,LEFT,360,350,15,True,True,False,True,False,False,DOWN,DOWN,675,674
400,450,400,460,70,470,DOWN,LEFT,350,340,15,True,True,False,True,False,False,DOWN,DOWN,674,673
400,450,400,460,70,470,DOWN,LEFT,350,340,15,True,True,False,True,False,False,DOWN,DOWN,674,673
400,460,400,470,70,470,DOWN,LEFT,340,330,15,True,True,False,True,False,False,DOWN,DOWN,673,672
400,460,400,470,70,470,DOWN,LEFT,340,330,15,True,True,False,True,False,False,DOWN,DOWN,673,672
400,470,390,470,70,470,EQUAL,LEFT,330,320,15,True,True,False,False,False,False,DOWN,LEFT,672,0
400,470,390,470,70,470,EQUAL,LEFT,330,320,15,True,True,False,False,False,False,LEFT,LEFT,672,0
390,470,380,470,70,470,EQUAL,LEFT,320,310,15,False,True,True,False,False,False,LEFT,LEFT,671,0
390,470,380,470,70,470,EQUAL,LEFT,320,310,15,False,True,True,False,False,False,LEFT,LEFT,671,0
380,470,370,470,70,470,EQUAL,LEFT,310,300,15,False,True,True,False,False,False,LEFT,LEFT,670,0
380,470,370,470,70,470,EQUAL,LEFT,310,300,15,False,True,True,False,False,False,LEFT,LEFT,670,0
370,470,360,470,70,470,EQUAL,LEFT,300,290,15,False,True,True,False,False,False,LEFT,LEFT,669,0
370,470,360,470,70,470,EQUAL,LEFT,300,290,15,False,True,True,False,False,False,LEFT,LEFT,669,0
360,470,350,470,70,470,EQUAL,LEFT,290,280,15,False,True,True,False,False,False,LEFT,LEFT,668,0
360,470,350,470,70,470,EQUAL,LEFT,290,280,15,False,True,True,False,False,False,LEFT,LEFT,668,0
350,470,340,470,70,470,EQUAL,LEFT,280,270,15,False,True,True,False,False,False,LEFT,LEFT,667,0
350,470,340,470,70,470,EQUAL,LEFT,280,270,15,False,True,True,False,False,False,LEFT,LEFT,667,0
340,470,330,470,70,470,EQUAL,LEFT,270,260,15,False,True,True,False,False,False,LEFT,LEFT,666,0
340,470,330,470,70,470,EQUAL,LEFT,270,260,15,False,True,True,False,False,False,LEFT,LEFT,666,0
330,470,320,470,70,470,EQUAL,LEFT,260,250,15,False,True,True,False,False,False,LEFT,LEFT,665,0
330,470,320,470,70,470,EQUAL,LEFT,260,250,15,False,True,True,False,False,False,LEFT,LEFT,665,0
320,470,310,470,70,470,EQUAL,LEFT,250,240,15,False,True,True,False,False,False,LEFT,LEFT,664,0
320,470,310,470,70,470,EQUAL,LEFT,250,240,15,False,True,True,False,False,False,LEFT,LEFT,664,0
310,470,300,470,70,470,EQUAL,LEFT,240,230,15,False,True,True,False,False,False,LEFT,LEFT,663,0
310,470,300,470,70,470,EQUAL,LEFT,240,230,15,False,True,True,False,False,False,LEFT,LEFT,663,0
300,470,290,470,70,470,EQUAL,LEFT,230,220,15,False,True,True,False,False,False,LEFT,LEFT,662,0
300,470,290,470,70,470,EQUAL,LEFT,230,220,15,False,True,True,False,False,False,LEFT,LEFT,662,0
290,470,280,470,70,470,EQUAL,LEFT,220,210,15,False,True,True,False,False,False,LEFT,LEFT,661,0
290,470,280,470,70,470,EQUAL,LEFT,220,210,15,False,True,True,False,False,False,LEFT,LEFT,661,0
280,470,270,470,70,470,EQUAL,LEFT,210,200,15,False,True,True,False,False,False,LEFT,LEFT,660,0
280,470,270,470,70,470,EQUAL,LEFT,210,200,15,False,True,True,False,False,False,LEFT,LEFT,660,0
270,470,260,470,70,470,EQUAL,LEFT,200,190,15,False,True,True,False,False,False,LEFT,LEFT,659,0
270,470,260,470,70,470,EQUAL,LEFT,200,190,15,False,True,True,False,False,False,LEFT,LEFT,659,0
260,470,250,470,70,470,EQUAL,LEFT,190,180,15,False,True,True,False,False,False,LEFT,LEFT,658,0
260,470,250,470,70,470,EQUAL,LEFT,190,180,15,False,True,True,False,False,False,LEFT,LEFT,658,0
250,470,240,470,70,470,EQUAL,LEFT,180,170,15,False,True,True,False,False,False,LEFT,LEFT,657,0
250,470,240,470,70,470,EQUAL,LEFT,180,170,15,False,True,True,False,False,False,LEFT,LEFT,657,0
240,470,230,470,70,470,EQUAL,LEFT,170,160,15,False,True,True,False,False,False,LEFT,LEFT,656,0
240,470,230,470,70,470,EQUAL,LEFT,170,160,15,False,True,True,False,False,False,LEFT,LEFT,656,0
230,470,220,470,70,470,EQUAL,LEFT,160,150,15,False,True,True,False,False,False,LEFT,LEFT,655,0
230,470,220,470,70,470,EQUAL,LEFT,160,150,15,False,True,True,False,False,False,LEFT,LEFT,655,0
220,470,210,470,70,470,EQUAL,LEFT,150,140,15,False,True,True,False,False,False,LEFT,LEFT,654,0
220,470,210,470,70,470,EQUAL,LEFT,150,140,15,False,True,True,False,False,False,LEFT,LEFT,654,0
210,470,200,470,70,470,EQUAL,LEFT,140,130,15,False,True,True,False,False,False,LEFT,LEFT,653,0
210,470,200,470,70,470,EQUAL,LEFT,140,130,15,False,True,True,False,False,False,LEFT,LEFT,653,0
200,470,190,470,70,470,EQUAL,LEFT,130,120,15,False,True,True,False,False,False,LEFT,LEFT,652,0
200,470,190,470,70,470,EQUAL,LEFT,130,120,15,False,True,True,False,False,False,LEFT,LEFT,652,0
190,470,180,470,70,470,EQUAL,LEFT,120,110,15,False,True,True,False,False,False,LEFT,LEFT,651,0
190,470,180,470,70,470,EQUAL,LEFT,120,110,15,False,True,True,False,False,False,LEFT,LEFT,651,0
180,470,170,470,70,470,EQUAL,LEFT,110,100,15,False,True,True,False,False,False,LEFT,LEFT,650,0
180,470,170,470,70,470,EQUAL,LEFT,110,100,15,False,True,True,False,False,False,LEFT,LEFT,650,0
170,470,160,470,70,470,EQUAL,LEFT,100,90,15,False,True,True,False,False,False,LEFT,LEFT,649,0
170,470,160,470,70,470,EQUAL,LEFT,100,90,15,False,True,True,False,False,False,LEFT,LEFT,649,0
160,470,150,470,70,470,EQUAL,LEFT,90,80,15,False,True,True,False,False,False,LEFT,LEFT,648,0
160,470,150,470,70,470,EQUAL,LEFT,90,80,15,False,True,True,False,False,False,LEFT,LEFT,648,0
150,470,140,470,70,470,EQUAL,LEFT,80,70,15,False,True,True,False,False,False,LEFT,LEFT,647,0
150,470,140,470,70,470,EQUAL,LEFT,80,70,15,False,True,True,False,False,False,LEFT,LEFT,647,0
140,470,130,470,70,470,EQUAL,LEFT,70,60,15,False,True,True,False,False,False,LEFT,LEFT,646,0
140,470,130,470,70,470,EQUAL,LEFT,70,60,15,False,True,True,False,False,False,LEFT,LEFT,646,0
130,470,120,470,70,470,EQUAL,LEFT,60,50,15,False,True,True,False,False,False,LEFT,LEFT,645,0
130,470,120,470,70,470,EQUAL,LEFT,60,50,15,False,True,True,False,False,False,LEFT,LEFT,645,0
120,470,110,470,70,470,EQUAL,LEFT,50,40,15,False,True,True,False,False,False,LEFT,LEFT,644,0
120,470,110,470,70,470,EQUAL,LEFT,50,40,15,False,True,True,False,False,False,LEFT,LEFT,644,0
110,470,100,470,70,470,EQUAL,LEFT,40,30,15,False,True,True,False,False,False,LEFT,LEFT,643,0
110,470,100,470,70,470,EQUAL,LEFT,40,30,15,False,True,True,False,False,False,LEFT,LEFT,643,0
100,470,90,470,70,470,EQUAL,LEFT,30,20,15,False,True,True,False,False,False,LEFT,LEFT,642,0
100,470,90,470,70,470,EQUAL,LEFT,30,20,15,False,True,True,False,False,False,LEFT,LEFT,642,0
90,470,80,470,70,470,EQUAL,LEFT,20,10,15,False,True,True,False,False,False,LEFT,LEFT,641,0
90,470,80,470,70,470,EQUAL,LEFT,20,10,15,False,True,True,False,False,False,LEFT,LEFT,641,0
80,470,70,470,70,470,EQUAL,LEFT,10,0,15,False,True,True,False,False,False,LEFT,LEFT,640,0
80,470,70,470,70,470,EQUAL,LEFT,10,0,15,False,True,True,False,False,False,LEFT,LEFT,640,0
70,470,60,470,380,410,EQUAL,EQUAL,370,380,16,False,True,True,False,False,False,LEFT,LEFT,740,0
70,470,60,470,380,410,EQUAL,EQUAL,370,380,16,False,True,True,False,False,False,LEFT,LEFT,740,0
60,470,50,470,380,410,UP,RIGHT,380,390,16,False,True,True,False,False,False,LEFT,LEFT,739,0
60,470,50,470,380,410,UP,RIGHT,380,390,16,False,True,True,False,False,False,LEFT,LEFT,739,0
50,470,50,460,380,410,UP,RIGHT,390,380,16,False,True,True,False,False,False,LEFT,UP,738,0
50,470,50,460,380,410,UP,RIGHT,390,380,16,False,True,True,False,False,False,UP,UP,738,0
50,460,50,450,380,410,UP,RIGHT,380,370,16,True,True,True,False,False,False,UP,UP,737,736
50,460,50,450,380,410,UP,RIGHT,380,370,16,True,True,True,False,False,False,UP,UP,737,736
50,450,50,440,380,410,UP,RIGHT,370,360,16,True,True,True,False,False,False,UP,UP,736,735
50,450,50,440,380,410,UP,RIGHT,370,360,16,True,True,True,False,False,False,UP,UP,736,735
50,440,60,440,380,410,UP,RIGHT,360,350,16,True,True,True,False,False,False,UP,RIGHT,735,734
50,440,60,440,380,410,UP,RIGHT,360,350,16,True,True,True,False,True,False,RIGHT,RIGHT,735,734
60,440,70,440,380,410,UP,RIGHT,350,340,16,True,False,True,True,True,False,RIGHT,RIGHT,734,733
60,440,70,440,380,410,UP,RIGHT,350,340,16,True,False,True,True,True,False,RIGHT,RIGHT,734,733
70,440,80,440,380,410,UP,RIGHT,340,330,16,True,False,True,True,True,False,RIGHT,RIGHT,733,732
70,440,80,440,380,410,UP,RIGHT,340,330,16,True,False,True,True,True,False,RIGHT,RIGHT,733,732
80,440,90,440,380,410,UP,RIGHT,330,320,16,True,False,True,True,True,False,RIGHT,RIGHT,732,731
80,440,90,440,380,410,UP,RIGHT,330,320,16,True,False,True,True,True,False,RIGHT,RIGHT,732,731
90,440,100,440,380,410,UP,RIGHT,320,310,16,True,False,True,True,True,False,RIGHT,RIGHT,731,730
90,440,100,440,380,410,UP,RIGHT,320,310,16,True,False,True,True,True,False,RIGHT,RIGHT,731,730
100,440,110,440,380,410,UP,RIGHT,310,300,16,True,False,True,True,True,False,RIGHT,RIGHT,730,729
100,440,110,440,380,410,UP,RIGHT,310,300,16,True,False,True,True,True,False,RIGHT,RIGHT,730,729
110,440,120,440,380,410,UP,RIGHT,300,290,16,True,False,True,True,True,False,RIGHT,RIGHT,729,728
110,440,120,440,380,410,UP,RIGHT,300,290,16,True,False,True,True,True,False,RIGHT,RIGHT,729,728
120,440,130,440,380,410,UP,RIGHT,290,280,16,True,False,True,True,True,False,RIGHT,RIGHT,728,727
120,440,130,440,380,410,UP,RIGHT,290,280,16,True,False,True,True,True,False,RIGHT,RIGHT,728,727
130,440,140,440,380,410,UP,RIGHT,280,270,16,True,False,True,True,True,False,RIGHT,RIGHT,727,726
130,440,140,440,380,410,UP,RIGHT,280,270,16,True,False,True,True,True,False,RIGHT,RIGHT,727,726
140,440,150,440,380,410,UP,RIGHT,270,260,16,True,False,True,True,True,False,RIGHT,RIGHT,726,725
140,440,150,440,380,410,UP,RIGHT,270,260,16,True,False,True,True,True,False,RIGHT,RIGHT,726,725
150,440,150,430,380,410,UP,RIGHT,260,250,16,True,False,True,True,True,False,RIGHT,UP,725,724
150,440,150,430,380,410,UP,RIGHT,260,250,16,True,False,True,True,False,False,UP,UP,725,724
150,430,160,430,380,410,UP,RIGHT,250,240,16,True,True,True,False,False,False,UP,RIGHT,724,723
150,430,160,430,380,410,UP,RIGHT,250,240,16,True,True,True,False,False,False,RIGHT,RIGHT,724,723
160,430,170,430,380,410,UP,RIGHT,240,230,16,True,False,True,True,False,False,RIGHT,RIGHT,723,722
160,430,170,430,380,410,UP,RIGHT,240,230,16,True,False,True,True,False,False,RIGHT,RIGHT,723,722
170,430,180,430,380,410,UP,RIGHT,230,220,16,True,False,True,True,False,False,RIGHT,RIGHT,722,721
170,430,180,430,380,410,UP,RIGHT,230,220,16,True,False,True,True,False,False,RIGHT,RIGHT,722,721
180,430,190,430,380,410,UP,RIGHT,220,210,16,True,False,True,True,False,False,RIGHT,RIGHT,721,720
180,430,190,430,380,410,UP,RIGHT,220,210,16,True,False,True,True,False,False,RIGHT,RIGHT,721,720
190,430,200,430,380,410,UP,RIGHT,210,200,16,True,False,True,True,False,False,RIGHT,RIGHT,720,719
190,430,200,430,380,410,UP,RIGHT,210,200,16,True,False,True,True,False,False,RIGHT,RIGHT,720,719
200,430,210,430,380,410,UP,RIGHT,200,190,16,True,False,True,True,False,False,RIGHT,RIGHT,719,718
200,430,210,430,380,410,UP,RIGHT,200,190,16,True,False,True,True,False,False,RIGHT,RIGHT,719,718
210,430,220,430,380,410,UP,RIGHT,190,180,16,True,False,True,True,False,False,RIGHT,RIGHT,718,717
210,430,220,430,380,410,UP,RIGHT,190,180,16,True,False,True,True,False,False,RIGHT,RIGHT,718,717
220,430,220,420,380,410,UP,RIGHT,180,170,16,True,False,True,True,False,False,RIGHT,UP,717,716
220,430,220,420,380,410,UP,RIGHT,180,170,16,True,False,True,True,False,False,UP,UP,717,716
220,420,230,420,380,410,UP,RIGHT,170,160,16,True,True,True,False,False,False,UP,RIGHT,716,715
220,420,230,420,380,410,UP,RIGHT,170,160,16,True,True,True,False,False,False,RIGHT,RIGHT,716,715
230,420,240,420,380,410,UP,RIGHT,160,150,16,True,False,True,True,False,False,RIGHT,RIGHT,715,714
230,420,240,420,380,410,UP,RIGHT,160,150,16,True,False,True,True,False,False,RIGHT,RIGHT,715,714
240,420,250,420,380,410,UP,RIGHT,150,140,16,True,False,True,True,False,False,RIGHT,RIGHT,714,713
240,420,250,420,380,410,UP,RIGHT,150,140,16,True,False,True,True,False,False,RIGHT,RIGHT,714,713
250,420,260,420,380,410,UP,RIGHT,140,130,16,True,False,True,True,False,False,RIGHT,RIGHT,713,712
250,420,260,420,380,410,UP,RIGHT,140,130,16,True,False,True,True,False,False,RIGHT,RIGHT,713,712
260,420,270,420,380,410,UP,RIGHT,130,120,16,True,False,True,True,False,False,RIGHT,RIGHT,712,711
260,420,270,420,380,410,UP,RIGHT,130,120,16,True,False,True,True,False,False,RIGHT,RIGHT,712,711
270,420,280,420,380,410,UP,RIGHT,120,110,16,True,False,True,True,False,False,RIGHT,RIGHT,711,710
270,420,280,420,380,410,UP,RIGHT,120,110,16,True,False,True,True,False,False,RIGHT,RIGHT,711,710
280,420,290,420,380,410,UP,RIGHT,110,100,16,True,False,True,True,False,False,RIGHT,RIGHT,710,709
280,420,290,420,380,410,UP,RIGHT,110,100,16,True,False,True,True,False,False,RIGHT,RIGHT,710,709
290,420,300,420,380,410,UP,RIGHT,100,90,16,True,False,True,True,False,False,RIGHT,RIGHT,709,708
290,420,300,420,380,410,UP,RIGHT,100,90,16,True,False,True,True,False,False,RIGHT,RIGHT,709,708
300,420,300,410,380,410,UP,RIGHT,90,80,16,True,False,True,True,False,False,RIGHT,UP,708,707
300,420,300,410,380,410,UP,RIGHT,90,80,16,True,False,True,True,False,False,UP,UP,708,707
300,410,310,410,380,410,EQUAL,RIGHT,80,70,16,True,True,True,False,False,False,UP,RIGHT,707,706
300,410,310,410,380,410,EQUAL,RIGHT,80,70,16,True,True,True,False,False,False,RIGHT,RIGHT,707,706
310,410,320,410,380,410,EQUAL,RIGHT,70,60,16,True,False,True,True,False,False,RIGHT,RIGHT,706,705
310,410,320,410,380,410,EQUAL,RIGHT,70,60,16,True,False,True,True,False,False,RIGHT,RIGHT,706,705
320,410,330,410,380,410,EQUAL,RIGHT,60,50,16,True,False,True,True,False,False,RIGHT,RIGHT,705,704
320,410,330,410,380,410,EQUAL,RIGHT,60,50,16,True,False,True,True,False,False,RIGHT,RIGHT,705,704
330,410,340,410,380,410,EQUAL,RIGHT,50,40,16,True,False,True,True,False,False,RIGHT,RIGHT,704,703
330,410,340,410,380,410,EQUAL,RIGHT,50,40,16,True,False,True,True,False,False,RIGHT,RIGHT,704,703
340,410,350,410,380,410,EQUAL,RIGHT,40,30,16,True,False,True,True,False,False,RIGHT,RIGHT,703,702
340,410,350,410,380,410,EQUAL,RIGHT,40,30,16,True,False,True,True,False,False,RIGHT,RIGHT,703,702
350,410,360,410,380,410,EQUAL,RIGHT,30,20,16,True,False,True,True,False,False,RIGHT,RIGHT,702,701
350,410,360,410,380,410,EQUAL,RIGHT,30,20,16,True,False,True,True,False,False,RIGHT,RIGHT,702,701
360,410,370,410,380,410,EQUAL,RIGHT,20,10,16,True,False,True,True,False,False,RIGHT,RIGHT,701,700
360,410,370,410,380,410,EQUAL,RIGHT,20,10,16,True,False,True,True,False,False,RIGHT,RIGHT,701,700
370,410,380,410,380,410,EQUAL,RIGHT,10,0,16,True,False,True,True,False,False,RIGHT,RIGHT,700,800
370,410,380,410,380,410,EQUAL,RIGHT,10,0,16,True,False,True,True,False,False,RIGHT,RIGHT,700,800
380,410,390,410,60,70,EQUAL,EQUAL,660,670,17,True,False,True,True,False,False,RIGHT,RIGHT,800,799
380,410,390,410,60,70,EQUAL,EQUAL,660,670,17,True,False,True,True,False,False,RIGHT,RIGHT,800,799
390,410,400,410,60,70,UP,LEFT,670,680,17,True,False,True,True,False,False,RIGHT,RIGHT,799,798
390,410,400,410,60,70,UP,LEFT,670,680,17,True,False,True,True,False,False,RIGHT,RIGHT,799,798
400,410,410,410,60,70,UP,LEFT,680,690,17,True,False,True,True,False,False,RIGHT,RIGHT,798,797
400,410,410,410,60,70,UP,LEFT,680,690,17,True,False,True,True,False,False,RIGHT,RIGHT,798,797
410,410,420,410,60,70,UP,LEFT,690,700,17,True,False,True,True,False,False,RIGHT,RIGHT,797,796
410,410,420,410,60,70,UP,LEFT,690,700,17,True,False,True,True,False,False,RIGHT,RIGHT,797,796
420,410,420,400,60,70,UP,LEFT,700,690,17,True,False,True,True,False,False,RIGHT,UP,796,795
420,410,420,400,60,70,UP,LEFT,700,690,17,True,False,True,True,False,False,UP,UP,796,795
420,400,420,390,60,70,UP,LEFT,690,680,17,True,True,True,False,False,False,UP,UP,795,794
420,400,420,390,60,70,UP,LEFT,690,680,17,True,True,True,False,False,False,UP,UP,795,794
420,390,420,380,60,70,UP,LEFT,680,670,17,True,True,True,False,False,False,UP,UP,794,793
420,390,420,380,60,70,UP,LEFT,680,670,17,True,True,True,False,False,False,UP,UP,794,793
420,380,420,370,60,70,UP,LEFT,670,660,17,True,True,True,False,False,False,UP,UP,793,792
420,380,420,370,60,70,UP,LEFT,670,660,17,True,True,True,False,False,False,UP,UP,793,792
420,370,420,360,60,70,UP,LEFT,660,650,17,True,True,True,False,False,False,UP,UP,792,791
420,370,420,360,60,70,UP,LEFT,660,650,17,True,True,True,False,False,False,UP,UP,792,791
420,360,420,350,60,70,UP,LEFT,650,640,17,True,True,True,False,False,False,UP,UP,791,790
420,360,420,350,60,70,UP,LEFT,650,640,17,True,True,True,False,False,False,UP,UP,791,790
420,350,420,340,60,70,UP,LEFT,640,630,17,True,True,True,False,False,False,UP,UP,790,789
420,350,420,340,60,70,UP,LEFT,640,630,17,True,True,True,False,False,False,UP,UP,790,789
420,340,420,330,60,70,UP,LEFT,630,620,17,True,True,True,False,False,False,UP,UP,789,788
420,340,420,330,60,70,UP,LEFT,630,620,17,True,True,True,False,False,False,UP,UP,789,788
420,330,420,320,60,70,UP,LEFT,620,610,17,True,True,True,False,False,False,UP,UP,788,787
420,330,420,320,60,70,UP,LEFT,620,610,17,True,True,True,False,False,False,UP,UP,788,787
420,320,420,310,60,70,UP,LEFT,610,600,17,True,True,True,False,False,False,UP,UP,787,786
420,320,420,310,60,70,UP,LEFT,610,600,17,True,True,True,False,False,False,UP,UP,787,786
420,310,420,300,60,70,UP,LEFT,600,590,17,True,True,True,False,False,False,UP,UP,786,785
420,310,420,300,60,70,UP,LEFT,600,590,17,True,True,True,False,False,False,UP,UP,786,785
420,300,420,290,60,70,UP,LEFT,590,580,17,True,True,True,False,False,False,UP,UP,785,784
420,300,420,290,60,70,UP,LEFT,590,580,17,True,True,True,False,False,False,UP,UP,785,784
420,290,420,280,60,70,UP,LEFT,580,570,17,True,True,True,False,False,False,UP,UP,784,783
420,290,420,280,60,70,UP,LEFT,580,570,17,True,True,True,False,False,False,UP,UP,784,783
420,280,420,270,60,70,UP,LEFT,570,560,17,True,True,True,False,False,False,UP,UP,783,782
420,280,420,270,60,70,UP,LEFT,570,560,17,True,True,True,False,False,False,UP,UP,783,782
420,270,420,260,60,70,UP,LEFT,560,550,17,True,True,True,False,False,False,UP,UP,782,781
420,270,420,260,60,70,UP,LEFT,560,550,17,True,True,True,False,False,False,UP,UP,782,781
420,260,420,250,60,70,UP,LEFT,550,540,17,True,True,True,False,False,False,UP,UP,781,780
420,260,420,250,60,70,UP,LEFT,550,540,17,True,True,True,False,False,False,UP,UP,781,780
420,250,420,240,60,70,UP,LEFT,540,530,17,True,True,True,False,False,False,UP,UP,780,779
420,250,420,240,60,70,UP,LEFT,540,530,17,True,True,True,False,False,False,UP,UP,780,779
420,240,420,230,60,70,UP,LEFT,530,520,17,True,True,True,False,False,False,UP,UP,779,778
420,240,420,230,60,70,UP,LEFT,530,520,17,True,True,True,False,False,False,UP,UP,779,778
420,230,420,220,60,70,UP,LEFT,520,510,17,True,True,True,False,False,False,UP,UP,778,777
420,230,420,220,60,70,UP,LEFT,520,510,17,True,True,True,False,False,False,UP,UP,778,777
420,220,420,210,60,70,UP,LEFT,510,500,17,True,True,True,False,False,False,UP,UP,777,776
420,220,420,210,60,70,UP,LEFT,510,500,17,True,True,True,False,False,False,UP,UP,777,776
420,210,420,200,60,70,UP,LEFT,500,490,17,True,True,True,False,False,False,UP,UP,776,775
420,210,420,200,60,70,UP,LEFT,500,490,17,True,True,True,False,False,False,UP,UP,776,775
420,200,420,190,60,70,UP,LEFT,490,480,17,True,True,True,False,False,False,UP,UP,775,774
420,200,420,190,60,70,UP,LEFT,490,480,17,True,True,True,False,False,False,UP,UP,775,774
420,190,420,180,60,70,UP,LEFT,480,470,17,True,True,True,False,False,False,UP,UP,774,773
420,190,420,180,60,70,UP,LEFT,480,470,17,True,True,True,False,False,False,UP,UP,774,773
420,180,420,170,60,70,UP,LEFT,470,460,17,True,True,True,False,False,False,UP,UP,773,772
420,180,420,170,60,70,UP,LEFT,470,460,17,True,True,True,False,False,False,UP,UP,773,772
420,170,420,160,60,70,UP,LEFT,460,450,17,True,True,True,False,False,False,UP,UP,772,771
420,170,420,160,60,70,UP,LEFT,460,450,17,True,True,True,False,False,False,UP,UP,772,771
420,160,420,150,60,70,UP,LEFT,450,440,17,True,True,True,False,False,False,UP,UP,771,770
420,160,420,150,60,70,UP,LEFT,450,440,17,True,True,True,False,False,False,UP,UP,771,770
420,150,420,140,60,70,UP,LEFT,440,430,17,True,True,True,False,False,False,UP,UP,770,769
420,150,420,140,60,70,UP,LEFT,440,430,17,True,True,True,False,False,False,UP,UP,770,769
420,140,420,130,60,70,UP,LEFT,430,420,17,True,True,True,False,False,False,UP,UP,769,768
420,140,420,130,60,70,UP,LEFT,430,420,17,True,True,True,False,False,False,UP,UP,769,768
420,130,420,120,60,70,UP,LEFT,420,410,17,True,True,True,False,False,False,UP,UP,768,767
420,130,420,120,60,70,UP,LEFT,420,410,17,True,True,True,False,False,False,UP,UP,768,767
420,120,420,110,60,70,UP,LEFT,410,400,17,True,True,True,False,False,False,UP,UP,767,766
420,120,420,110,60,70,UP,LEFT,410,400,17,True,True,True,False,False,False,UP,UP,767,766
420,110,420,100,60,70,UP,LEFT,400,390,17,True,True,True,False,False,False,UP,UP,766,765
420,110,420,100,60,70,UP,LEFT,400,390,17,True,True,True,False,False,False,UP,UP,766,765
420,100,420,90,60,70,UP,LEFT,390,380,17,True,True,True,False,False,False,UP,UP,765,764
420,100,420,90,60,70,UP,LEFT,390,380,17,True,True,True,False,False,False,UP,UP,765,764
420,90,420,80,60,70,UP,LEFT,380,370,17,True,True,True,False,False,False,UP,UP,764,763
420,90,420,80,60,70,UP,LEFT,380,370,17,True,True,True,False,False,False,UP,UP,764,763
420,80,420,70,60,70,UP,LEFT,370,360,17,True,True,True,False,False,False,UP,UP,763,762
420,80,420,70,60,70,UP,LEFT,370,360,17,True,True,True,False,False,False,UP,UP,763,762
420,70,410,70,60,70,EQUAL,LEFT,360,350,17,True,True,True,False,False,False,UP,LEFT,762,761
420,70,410,70,60,70,EQUAL,LEFT,360,350,17,True,True,True,False,False,False,LEFT,LEFT,762,761
410,70,400,70,60,70,EQUAL,LEFT,350,340,17,False,True,True,True,False,False,LEFT,LEFT,761,760
410,70,400,70,60,70,EQUAL,LEFT,350,340,17,False,True,True,True,False,False,LEFT,LEFT,761,760
400,70,390,70,60,70,EQUAL,LEFT,340,330,17,False,True,True,True,False,False,LEFT,LEFT,760,759
400,70,390,70,60,70,EQUAL,LEFT,340,330,17,False,True,True,True,False,False,LEFT,LEFT,760,759
390,70,380,70,60,70,EQUAL,LEFT,330,320,17,False,True,True,True,False,False,LEFT,LEFT,759,758
390,70,380,70,60,70,EQUAL,LEFT,330,320,17,False,True,True,True,False,False,LEFT,LEFT,759,758
380,70,370,70,60,70,EQUAL,LEFT,320,310,17,False,True,True,True,False,False,LEFT,LEFT,758,757
380,70,370,70,60,70,EQUAL,LEFT,320,310,17,False,True,True,True,False,False,LEFT,LEFT,758,757
370,70,360,70,60,70,EQUAL,LEFT,310,300,17,False,True,True,True,False,False,LEFT,LEFT,757,756
370,70,360,70,60,70,EQUAL,LEFT,310,300,17,False,True,True,True,False,False,LEFT,LEFT,757,756
360,70,350,70,60,70,EQUAL,LEFT,300,290,17,False,True,True,True,False,False,LEFT,LEFT,756,755
360,70,350,70,60,70,EQUAL,LEFT,300,290,17,False,True,True,True,False,False,LEFT,LEFT,756,755
350,70,340,70,60,70,EQUAL,LEFT,290,280,17,False,True,True,True,False,False,LEFT,LEFT,755,754
350,70,340,70,60,70,EQUAL,LEFT,290,280,17,False,True,True,True,False,False,LEFT,LEFT,755,754
340,70,330,70,60,70,EQUAL,LEFT,280,270,17,False,True,True,True,False,False,LEFT,LEFT,754,753
340,70,330,70,60,70,EQUAL,LEFT,280,270,17,False,True,True,True,False,False,LEFT,LEFT,754,753
330,70,320,70,60,70,EQUAL,LEFT,270,260,17,False,True,True,True,False,False,LEFT,LEFT,753,752
330,70,320,70,60,70,EQUAL,LEFT,270,260,17,False,True,True,True,False,False,LEFT,LEFT,753,752
320,70,310,70,60,70,EQUAL,LEFT,260,250,17,False,True,True,True,False,False,LEFT,LEFT,752,751
320,70,310,70,60,70,EQUAL,LEFT,260,250,17,False,True,True,True,False,False,LEFT,LEFT,752,751
310,70,300,70,60,70,EQUAL,LEFT,250,240,17,False,True,True,True,False,False,LEFT,LEFT,751,750
310,70,300,70,60,70,EQUAL,LEFT,250,240,17,False,True,True,True,False,False,LEFT,LEFT,751,750
300,70,290,70,60,70,EQUAL,LEFT,240,230,17,False,True,True,True,False,False,LEFT,LEFT,750,749
300,70,290,70,60,70,EQUAL,LEFT,240,230,17,False,True,True,True,False,False,LEFT,LEFT,750,749
290,70,280,70,60,70,EQUAL,LEFT,230,220,17,False,True,True,True,False,False,LEFT,LEFT,749,748
290,70,280,70,60,70,EQUAL,LEFT,230,220,17,False,True,True,True,False,False,LEFT,LEFT,749,748
280,70,270,70,60,70,EQUAL,LEFT,220,210,17,False,True,True,True,False,False,LEFT,LEFT,748,747
280,70,270,70,60,70,EQUAL,LEFT,220,210,17,False,True,True,True,False,False,LEFT,LEFT,748,747
270,70,260,70,60,70,EQUAL,LEFT,210,200,17,False,True,True,True,False,False,LEFT,LEFT,747,746
270,70,260,70,60,70,EQUAL,LEFT,210,200,17,False,True,True,True,False,False,LEFT,LEFT,747,746
260,70,250,70,60,70,EQUAL,LEFT,200,190,17,False,True,True,True,False,False,LEFT,LEFT,746,745
260,70,250,70,60,70,EQUAL,LEFT,200,190,17,False,True,True,True,False,False,LEFT,LEFT,746,745
250,70,240,70,60,70,EQUAL,LEFT,190,180,17,False,True,True,True,False,False,LEFT,LEFT,745,744
250,70,240,70,60,70,EQUAL,LEFT,190,180,17,False,True,True,True,False,False,LEFT,LEFT,745,744
240,70,230,70,60,70,EQUAL,LEFT,180,170,17,False,True,True,True,False,False,LEFT,LEFT,744,743
240,70,230,70,60,70,EQUAL,LEFT,180,170,17,False,True,True,True,False,False,LEFT,LEFT,744,743
230,70,220,70,60,70,EQUAL,LEFT,170,160,17,False,True,True,True,False,False,LEFT,LEFT,743,742
230,70,220,70,60,70,EQUAL,LEFT,170,160,17,False,True,True,True,False,False,LEFT,LEFT,743,742
220,70,210,70,60,70,EQUAL,LEFT,160,150,17,False,True,True,True,False,False,LEFT,LEFT,742,741
220,70,210,70,60,70,EQUAL,LEFT,160,150,17,False,True,True,True,False,False,LEFT,LEFT,742,741
210,70,200,70,60,70,EQUAL,LEFT,150,140,17,False,True,True,True,False,False,LEFT,LEFT,741,740
210,70,200,70,60,70,EQUAL,LEFT,150,140,17,False,True,True,True,False,False,LEFT,LEFT,741,740
200,70,190,70,60,70,EQUAL,LEFT,140,130,17,False,True,True,True,False,False,LEFT,LEFT,740,739
200,70,190,70,60,70,EQUAL,LEFT,140,130,17,False,True,True,True,False,False,LEFT,LEFT,740,739
190,70,180,70,60,70,EQUAL,LEFT,130,120,17,False,True,True,True,False,False,LEFT,LEFT,739,738
190,70,180,70,60,70,EQUAL,LEFT,130,120,17,False,True,True,True,False,False,LEFT,LEFT,739,738
180,70,170,70,60,70,EQUAL,LEFT,120,110,17,False,True,True,True,False,False,LEFT,LEFT,738,737
180,70,170,70,60,70,EQUAL,LEFT,120,110,17,False,True,True,True,False,False,LEFT,LEFT,738,737
170,70,160,70,60,70,EQUAL,LEFT,110,100,17,False,True,True,True,False,False,LEFT,LEFT,737,736
170,70,160,70,60,70,EQUAL,LEFT,110,100,17,False,True,True,True,False,False,LEFT,LEFT,737,736
160,70,150,70,60,70,EQUAL,LEFT,100,90,17,False,True,True,True,False,False,LEFT,LEFT,736,735
160,70,150,70,60,70,EQUAL,LEFT,100,90,17,False,True,True,True,False,False,LEFT,LEFT,736,735
150,70,140,70,60,70,EQUAL,LEFT,90,80,17,False,True,True,True,False,False,LEFT,LEFT,735,734
150,70,140,70,60,70,EQUAL,LEFT,90,80,17,False,True,True,True,False,False,LEFT,LEFT,735,734
140,70,130,70,60,70,EQUAL,LEFT,80,70,17,False,True,True,True,False,False,LEFT,LEFT,734,733
140,70,130,70,60,70,EQUAL,LEFT,80,70,17,False,True,True,True,False,False,LEFT,LEFT,734,733
130,70,120,70,60,70,EQUAL,LEFT,70,60,17,False,True,True,True,False,False,LEFT,LEFT,733,732
130,70,120,70,60,70,EQUAL,LEFT,70,60,17,False,True,True,True,False,False,LEFT,LEFT,733,732
120,70,110,70,60,70,EQUAL,LEFT,60,50,17,False,True,True,True,False,False,LEFT,LEFT,732,731
120,70,110,70,60,70,EQUAL,LEFT,60,50,17,False,True,True,True,False,False,LEFT,LEFT,732,731
110,70,100,70,60,70,EQUAL,LEFT,50,40,17,False,True,True,True,False,False,LEFT,LEFT,731,730
110,70,100,70,60,70,EQUAL,LEFT,50,40,17,False,True,True,True,False,False,LEFT,LEFT,731,730
100,70,90,70,60,70,EQUAL,LEFT,40,30,17,False,True,True,True,False,False,LEFT,LEFT,730,729
100,70,90,70,60,70,EQUAL,LEFT,40,30,17,False,True,True,True,False,False,LEFT,LEFT,730,729
90,70,80,70,60,70,EQUAL,LEFT,30,20,17,False,True,True,True,False,False,LEFT,LEFT,729,728
90,70,80,70,60,70,EQUAL,LEFT,30,20,17,False,True,True,True,False,False,LEFT,LEFT,729,728
80,70,70,70,60,70,EQUAL,LEFT,20,10,17,False,True,True,True,False,False,LEFT,LEFT,728,727
80,70,70,70,60,70,EQUAL,LEFT,20,10,17,False,True,True,True,False,False,LEFT,LEFT,728,727
70,70,60,70,60,70,EQUAL,LEFT,10,0,17,False,True,True,True,False,False,LEFT,LEFT,727,827
70,70,60,70,60,70,EQUAL,LEFT,10,0,17,False,True,True,True,False,False,LEFT,LEFT,727,827
60,70,50,70,460,70,EQUAL,EQUAL,400,410,18,False,True,True,True,False,False,LEFT,LEFT,827,826
60,70,50,70,460,70,EQUAL,EQUAL,400,410,18,False,True,True,True,False,False,LEFT,LEFT,827,826
50,70,40,70,460,70,EQUAL,RIGHT,410,420,18,False,True,True,True,False,False,LEFT,LEFT,826,825
50,70,40,70,460,70,EQUAL,RIGHT,410,420,18,False,True,True,True,False,False,LEFT,LEFT,826,825
40,70,30,70,460,70,EQUAL,RIGHT,420,430,18,False,True,True,True,False,False,LEFT,LEFT,825,824
40,70,30,70,460,70,EQUAL,RIGHT,420,430,18,False,True,True,True,False,False,LEFT,LEFT,825,824
30,70,20,70,460,70,EQUAL,RIGHT,430,440,18,False,True,True,True,False,False,LEFT,LEFT,824,823
30,70,20,70,460,70,EQUAL,RIGHT,430,440,18,False,True,True,True,False,False,LEFT,LEFT,824,823
20,70,10,70,460,70,EQUAL,RIGHT,440,450,18,False,True,True,True,False,False,LEFT,LEFT,823,822
20,70,10,70,460,70,EQUAL,RIGHT,440,450,18,False,True,True,True,False,False,LEFT,LEFT,823,822
10,70,10,80,460,70,EQUAL,RIGHT,450,460,18,False,True,True,True,False,False,LEFT,DOWN,822,821
10,70,10,80,460,70,EQUAL,RIGHT,450,460,18,False,True,True,True,True,False,DOWN,DOWN,822,821
10,80,10,90,460,70,UP,RIGHT,460,470,18,True,True,False,True,True,False,DOWN,DOWN,821,820
10,80,10,90,460,70,UP,RIGHT,460,470,18,True,True,False,True,True,False,DOWN,DOWN,821,820
10,90,10,100,460,70,UP,RIGHT,470,480,18,True,True,False,True,True,False,DOWN,DOWN,820,819
10,90,10,100,460,70,UP,RIGHT,470,480,18,True,True,False,True,True,False,DOWN,DOWN,820,819
10,100,20,100,460,70,UP,RIGHT,480,470,18,True,True,False,True,True,False,DOWN,RIGHT,819,818
10,100,20,100,460,70,UP,RIGHT,480,470,18,True,True,False,True,True,False,RIGHT,RIGHT,819,818
20,100,30,100,460,70,UP,RIGHT,470,460,18,True,False,True,True,True,False,RIGHT,RIGHT,818,817
20,100,30,100,460,70,UP,RIGHT,470,460,18,True,False,True,True,True,False,RIGHT,RIGHT,818,817
30,100,40,100,460,70,UP,RIGHT,460,450,18,True,False,True,True,True,False,RIGHT,RIGHT,817,816
30,100,40,100,460,70,UP,RIGHT,460,450,18,True,False,True,True,True,False,RIGHT,RIGHT,817,816
40,100,50,100,460,70,UP,RIGHT,450,440,18,True,False,True,True,True,False,RIGHT,RIGHT,816,815
40,100,50,100,460,70,UP,RIGHT,450,440,18,True,False,True,True,True,False,RIGHT,RIGHT,816,815
50,100,60,100,460,70,UP,RIGHT,440,430,18,True,False,True,True,True,False,RIGHT,RIGHT,815,814
50,100,60,100,460,70,UP,RIGHT,440,430,18,True,False,True,True,True,False,RIGHT,RIGHT,815,814
60,100,70,100,460,70,UP,RIGHT,430,420,18,True,False,True,True,True,False,RIGHT,RIGHT,814,813
60,100,70,100,460,70,UP,RIGHT,430,420,18,True,False,True,True,True,False,RIGHT,RIGHT,814,813
70,100,80,100,460,70,UP,RIGHT,420,410,18,True,False,True,True,True,False,RIGHT,RIGHT,813,812
70,100,80,100,460,70,UP,RIGHT,420,410,18,True,False,True,True,True,False,RIGHT,RIGHT,813,812
80,100,90,100,460,70,UP,RIGHT,410,400,18,True,False,True,True,True,False,RIGHT,RIGHT,812,811
80,100,90,100,460,70,UP,RIGHT,410,400,18,True,False,True,True,True,False,RIGHT,RIGHT,812,811
90,100,100,100,460,70,UP,RIGHT,400,390,18,True,False,True,True,True,False,RIGHT,RIGHT,811,810
90,100,100,100,460,70,UP,RIGHT,400,390,18,True,False,True,True,True,False,RIGHT,RIGHT,811,810
100,100,110,100,460,70,UP,RIGHT,390,380,18,True,False,True,True,True,False,RIGHT,RIGHT,810,809
100,100,110,100,460,70,UP,RIGHT,390,380,18,True,False,True,True,True,False,RIGHT,RIGHT,810,809
110,100,120,100,460,70,UP,RIGHT,380,370,18,True,False,True,True,True,False,RIGHT,RIGHT,809,808
110,100,120,100,460,70,UP,RIGHT,380,370,18,True,False,True,True,True,False,RIGHT,RIGHT,809,808
120,100,130,100,460,70,UP,RIGHT,370,360,18,True,False,True,True,True,False,RIGHT,RIGHT,808,807
120,100,130,100,460,70,UP,RIGHT,370,360,18,True,False,True,True,True,False,RIGHT,RIGHT,808,807
130,100,140,100,460,70,UP,RIGHT,360,350,18,True,False,True,True,True,False,RIGHT,RIGHT,807,806
130,100,140,100,460,70,UP,RIGHT,360,350,18,True,False,True,True,True,False,RIGHT,RIGHT,807,806
140,100,150,100,460,70,UP,RIGHT,350,340,18,True,False,True,True,True,False,RIGHT,RIGHT,806,805
140,100,150,100,460,70,UP,RIGHT,350,340,18,True,False,True,True,True,False,RIGHT,RIGHT,806,805
150,100,160,100,460,70,UP,RIGHT,340,330,18,True,False,True,True,True,False,RIGHT,RIGHT,805,804
150,100,160,100,460,70,UP,RIGHT,340,330,18,True,False,True,True,True,False,RIGHT,RIGHT,805,804
160,100,170,100,460,70,UP,RIGHT,330,320,18,True,False,True,True,True,False,RIGHT,RIGHT,804,803
160,100,170,100,460,70,UP,RIGHT,330,320,18,True,False,True,True,True,False,RIGHT,RIGHT,804,803
170,100,180,100,460,70,UP,RIGHT,320,310,18,True,False,True,True,True,False,RIGHT,RIGHT,803,802
170,100,180,100,460,70,UP,RIGHT,320,310,18,True,False,True,True,True,False,RIGHT,RIGHT,803,802
180,100,190,100,460,70,UP,RIGHT,310,300,18,True,False,True,True,True,False,RIGHT,RIGHT,802,801
180,100,190,100,460,70,UP,RIGHT,310,300,18,True,False,True,True,True,False,RIGHT,RIGHT,802,801
190,100,200,100,460,70,UP,RIGHT,300,290,18,True,False,True,True,True,False,RIGHT,RIGHT,801,800
190,100,200,100,460,70,UP,RIGHT,300,290,18,True,False,True,True,True,False,RIGHT,RIGHT,801,800
200,100,210,100,460,70,UP,RIGHT,290,280,18,True,False,True,True,True,False,RIGHT,RIGHT,800,799
200,100,210,100,460,70,UP,RIGHT,290,280,18,True,False,True,True,True,False,RIGHT,RIGHT,800,799
210,100,220,100,460,70,UP,RIGHT,280,270,18,True,False,True,True,True,False,RIGHT,RIGHT,799,798
210,100,220,100,460,70,UP,RIGHT,280,270,18,True,False,True,True,True,False,RIGHT,RIGHT,799,798
220,100,230,100,460,70,UP,RIGHT,270,260,18,True,False,True,True,True,False,RIGHT,RIGHT,798,797
220,100,230,100,460,70,UP,RIGHT,270,260,18,True,False,True,True,True,False,RIGHT,RIGHT,798,797
230,100,240,100,460,70,UP,RIGHT,260,250,18,True,False,True,True,True,False,RIGHT,RIGHT,797,796
230,100,240,100,460,70,UP,RIGHT,260,250,18,True,False,True,True,True,False,RIGHT,RIGHT,797,796
240,100,250,100,460,70,UP,RIGHT,250,240,18,True,False,True,True,True,False,RIGHT,RIGHT,796,795
240,100,250,100,460,70,UP,RIGHT,250,240,18,True,False,True,True,True,False,RIGHT,RIGHT,796,795
250,100,260,100,460,70,UP,RIGHT,240,230,18,True,False,True,True,True,False,RIGHT,RIGHT,795,794
250,100,260,100,460,70,UP,RIGHT,240,230,18,True,False,True,True,True,False,RIGHT,RIGHT,795,794
260,100,270,100,460,70,UP,RIGHT,230,220,18,True,False,True,True,True,False,RIGHT,RIGHT,794,793
260,100,270,100,460,70,UP,RIGHT,230,220,18,True,False,True,True,True,False,RIGHT,RIGHT,794,793
270,100,280,100,460,70,UP,RIGHT,220,210,18,True,False,True,True,True,False,RIGHT,RIGHT,793,792
270,100,280,100,460,70,UP,RIGHT,220,210,18,True,False,True,True,True,False,RIGHT,RIGHT,793,792
280,100,290,100,460,70,UP,RIGHT,210,200,18,True,False,True,True,True,False,RIGHT,RIGHT,792,791
280,100,290,100,460,70,UP,RIGHT,210,200,18,True,False,True,True,True,False,RIGHT,RIGHT,792,791
290,100,300,100,460,70,UP,RIGHT,200,190,18,True,False,True,True,True,False,RIGHT,RIGHT,791,790
290,100,300,100,460,70,UP,RIGHT,200,190,18,True,False,True,True,True,False,RIGHT,RIGHT,791,790
300,100,310,100,460,70,UP,RIGHT,190,180,18,True,False,True,True,True,False,RIGHT,RIGHT,790,789
300,100,310,100,460,70,UP,RIGHT,190,180,18,True,False,True,True,True,False,RIGHT,RIGHT,790,789
310,100,320,100,460,70,UP,RIGHT,180,170,18,True,False,True,True,True,False,RIGHT,RIGHT,789,788
310,100,320,100,460,70,UP,RIGHT,180,170,18,True,False,True,True,True,False,RIGHT,RIGHT,789,788
320,100,330,100,460,70,UP,RIGHT,170,160,18,True,False,True,True,True,False,RIGHT,RIGHT,788,787
320,100,330,100,460,70,UP,RIGHT,170,160,18,True,False,True,True,True,False,RIGHT,RIGHT,788,787
330,100,340,100,460,70,UP,RIGHT,160,150,18,True,False,True,True,True,False,RIGHT,RIGHT,787,786
330,100,340,100,460,70,UP,RIGHT,160,150,18,True,False,True,True,True,False,RIGHT,RIGHT,787,786
340,100,350,100,460,70,UP,RIGHT,150,140,18,True,False,True,True,True,False,RIGHT,RIGHT,786,785
340,100,350,100,460,70,UP,RIGHT,150,140,18,True,False,True,True,True,False,RIGHT,RIGHT,786,785
350,100,360,100,460,70,UP,RIGHT,140,130,18,True,False,True,True,True,False,RIGHT,RIGHT,785,784
350,100,360,100,460,70,UP,RIGHT,140,130,18,True,False,True,True,True,False,RIGHT,RIGHT,785,784
360,100,370,100,460,70,UP,RIGHT,130,120,18,True,False,True,True,True,False,RIGHT,RIGHT,784,783
360,100,370,100,460,70,UP,RIGHT,130,120,18,True,False,True,True,True,False,RIGHT,RIGHT,784,783
370,100,380,100,460,70,UP,RIGHT,120,110,18,True,False,True,True,True,False,RIGHT,RIGHT,783,782
370,100,380,100,460,70,UP,RIGHT,120,110,18,True,False,True,True,True,False,RIGHT,RIGHT,783,782
380,100,390,100,460,70,UP,RIGHT,110,100,18,True,False,True,True,True,False,RIGHT,RIGHT,782,781
380,100,390,100,460,70,UP,RIGHT,110,100,18,True,False,True,True,True,False,RIGHT,RIGHT,782,781
390,100,400,100,460,70,UP,RIGHT,100,90,18,True,False,True,True,True,False,RIGHT,RIGHT,781,780
390,100,400,100,460,70,UP,RIGHT,100,90,18,True,False,True,True,True,False,RIGHT,RIGHT,781,780
400,100,410,100,460,70,UP,RIGHT,90,80,18,True,False,True,True,True,False,RIGHT,RIGHT,780,779
400,100,410,100,460,70,UP,RIGHT,90,80,18,True,False,True,True,True,False,RIGHT,RIGHT,780,779
410,100,420,100,460,70,UP,RIGHT,80,70,18,True,False,True,True,True,False,RIGHT,RIGHT,779,778
410,100,420,100,460,70,UP,RIGHT,80,70,18,True,False,True,True,True,False,RIGHT,RIGHT,779,778
420,100,430,100,460,70,UP,RIGHT,70,60,18,True,False,True,True,True,False,RIGHT,RIGHT,778,777
420,100,430,100,460,70,UP,RIGHT,70,60,18,True,False,True,True,True,False,RIGHT,RIGHT,778,777
430,100,440,100,460,70,UP,RIGHT,60,50,18,True,False,True,True,True,False,RIGHT,RIGHT,777,776
430,100,440,100,460,70,UP,RIGHT,60,50,18,True,False,True,True,True,False,RIGHT,RIGHT,777,776
440,100,450,100,460,70,UP,RIGHT,50,40,18,True,False,True,True,True,False,RIGHT,RIGHT,776,775
440,100,450,100,460,70,UP,RIGHT,50,40,18,True,False,True,True,True,False,RIGHT,RIGHT,776,775
450,100,460,100,460,70,UP,RIGHT,40,30,18,True,False,True,True,True,False,RIGHT,RIGHT,775,774
450,100,460,100,460,70,UP,RIGHT,40,30,18,True,False,True,True,True,False,RIGHT,RIGHT,775,774
460,100,460,90,460,70,UP,EQUAL,30,20,18,True,False,True,True,True,False,RIGHT,UP,774,773
460,100,460,90,460,70,UP,EQUAL,30,20,18,True,False,True,True,True,False,UP,UP,774,773
460,90,460,80,460,70,UP,EQUAL,20,10,18,True,True,True,False,True,False,UP,UP,773,772
460,90,460,80,460,70,UP,EQUAL,20,10,18,True,True,True,False,True,False,UP,UP,773,772
460,80,460,70,460,70,UP,EQUAL,10,0,18,True,True,True,False,True,False,UP,UP,772,872
460,80,460,70,460,70,UP,EQUAL,10,0,18,True,True,True,False,True,False,UP,UP,772,872
460,70,460,60,280,150,EQUAL,EQUAL,260,270,19,True,True,True,False,True,False,UP,UP,872,871
460,70,460,60,280,150,EQUAL,EQUAL,260,270,19,True,True,True,False,True,False,UP,UP,872,871
460,60,460,50,280,150,DOWN,LEFT,270,280,19,True,True,True,False,True,False,UP,UP,871,870
460,60,460,50,280,150,DOWN,LEFT,270,280,19,True,True,True,False,True,False,UP,UP,871,870
460,50,450,50,280,150,DOWN,LEFT,280,270,19,True,True,True,False,True,False,UP,LEFT,870,869
460,50,450,50,280,150,DOWN,LEFT,280,270,19,True,True,True,False,True,False,LEFT,LEFT,870,869
450,50,440,50,280,150,DOWN,LEFT,270,260,19,False,True,True,True,True,False,LEFT,LEFT,869,868
450,50,440,50,280,150,DOWN,LEFT,270,260,19,False,True,True,True,True,False,LEFT,LEFT,869,868
440,50,430,50,280,150,DOWN,LEFT,260,250,19,False,True,True,True,True,False,LEFT,LEFT,868,867
440,50,430,50,280,150,DOWN,LEFT,260,250,19,False,True,True,True,True,False,LEFT,LEFT,868,867
430,50,420,50,280,150,DOWN,LEFT,250,240,19,False,True,True,True,True,False,LEFT,LEFT,867,866
430,50,420,50,280,150,DOWN,LEFT,250,240,19,False,True,True,True,True,False,LEFT,LEFT,867,866
420,50,410,50,280,150,DOWN,LEFT,240,230,19,False,True,True,True,True,False,LEFT,LEFT,866,865
420,50,410,50,280,150,DOWN,LEFT,240,230,19,False,True,True,True,True,False,LEFT,LEFT,866,865
410,50,400,50,280,150,DOWN,LEFT,230,220,19,False,True,True,True,True,False,LEFT,LEFT,865,864
410,50,400,50,280,150,DOWN,LEFT,230,220,19,False,True,True,True,True,False,LEFT,LEFT,865,864
400,50,390,50,280,150,DOWN,LEFT,220,210,19,False,True,True,True,True,False,LEFT,LEFT,864,863
400,50,390,50,280,150,DOWN,LEFT,220,210,19,False,True,True,True,True,False,LEFT,LEFT,864,863
390,50,380,50,280,150,DOWN,LEFT,210,200,19,False,True,True,True,True,False,LEFT,LEFT,863,862
390,50,380,50,280,150,DOWN,LEFT,210,200,19,False,True,True,True,True,False,LEFT,LEFT,863,862
380,50,370,50,280,150,DOWN,LEFT,200,190,19,False,True,True,True,True,False,LEFT,LEFT,862,861
380,50,370,50,280,150,DOWN,LEFT,200,190,19,False,True,True,True,True,False,LEFT,LEFT,862,861
370,50,360,50,280,150,DOWN,LEFT,190,180,19,False,True,True,True,True,False,LEFT,LEFT,861,860
370,50,360,50,280,150,DOWN,LEFT,190,180,19,False,True,True,True,True,False,LEFT,LEFT,861,860
360,50,350,50,280,150,DOWN,LEFT,180,170,19,False,True,True,True,True,False,LEFT,LEFT,860,859
360,50,350,50,280,150,DOWN,LEFT,180,170,19,False,True,True,True,True,False,LEFT,LEFT,860,859
350,50,340,50,280,150,DOWN,LEFT,170,160,19,False,True,True,True,True,False,LEFT,LEFT,859,858
350,50,340,50,280,150,DOWN,LEFT,170,160,19,False,True,True,True,True,False,LEFT,LEFT,859,858
340,50,330,50,280,150,DOWN,LEFT,160,150,19,False,True,True,True,True,False,LEFT,LEFT,858,857
340,50,330,50,280,150,DOWN,LEFT,160,150,19,False,True,True,True,True,False,LEFT,LEFT,858,857
330,50,320,50,280,150,DOWN,LEFT,150,140,19,False,True,True,True,True,False,LEFT,LEFT,857,856
330,50,320,50,280,150,DOWN,LEFT,150,140,19,False,True,True,True,True,False,LEFT,LEFT,857,856
320,50,310,50,280,150,DOWN,LEFT,140,130,19,False,True,True,True,True,False,LEFT,LEFT,856,855
320,50,310,50,280,150,DOWN,LEFT,140,130,19,False,True,True,True,True,False,LEFT,LEFT,856,855
310,50,300,50,280,150,DOWN,LEFT,130,120,19,False,True,True,True,True,False,LEFT,LEFT,855,854
310,50,300,50,280,150,DOWN,LEFT,130,120,19,False,True,True,True,True,False,LEFT,LEFT,855,854
300,50,290,50,280,150,DOWN,LEFT,120,110,19,False,True,True,True,True,False,LEFT,LEFT,854,853
300,50,290,50,280,150,DOWN,LEFT,120,110,19,False,True,True,True,True,False,LEFT,LEFT,854,853
290,50,280,50,280,150,DOWN,LEFT,110,100,19,False,True,True,True,True,False,LEFT,LEFT,853,852
290,50,280,50,280,150,DOWN,LEFT,110,100,19,False,True,True,True,True,False,LEFT,LEFT,853,852
280,50,280,60,280,150,DOWN,EQUAL,100,90,19,False,True,True,True,True,False,LEFT,DOWN,852,851
280,50,280,60,280,150,DOWN,EQUAL,100,90,19,False,True,True,True,True,False,DOWN,DOWN,852,851
280,60,280,70,280,150,DOWN,EQUAL,90,80,19,True,True,False,True,True,False,DOWN,DOWN,851,850
280,60,280,70,280,150,DOWN,EQUAL,90,80,19,True,True,False,True,True,False,DOWN,DOWN,851,850
280,70,280,80,280,150,DOWN,EQUAL,80,70,19,True,True,False,True,True,False,DOWN,DOWN,850,849
280,70,280,80,280,150,DOWN,EQUAL,80,70,19,True,True,False,True,True,False,DOWN,DOWN,850,849
280,80,280,90,280,150,DOWN,EQUAL,70,60,19,True,True,False,True,True,False,DOWN,DOWN,849,848
280,80,280,90,280,150,DOWN,EQUAL,70,60,19,True,True,False,True,True,False,DOWN,DOWN,849,848
280,90,280,100,280,150,DOWN,EQUAL,60,50,19,True,True,False,True,True,False,DOWN,DOWN,848,847
280,90,280,100,280,150,DOWN,EQUAL,60,50,19,True,True,False,True,True,False,DOWN,DOWN,848,847
280,100,280,110,280,150,DOWN,EQUAL,50,40,19,True,True,False,True,True,False,DOWN,DOWN,847,846
280,100,280,110,280,150,DOWN,EQUAL,50,40,19,True,True,False,True,True,False,DOWN,DOWN,847,846
280,110,280,120,280,150,DOWN,EQUAL,40,30,19,True,True,False,True,True,False,DOWN,DOWN,846,845
280,110,280,120,280,150,DOWN,EQUAL,40,30,19,True,True,False,True,True,False,DOWN,DOWN,846,845
280,120,280,130,280,150,DOWN,EQUAL,30,20,19,True,True,False,True,True,False,DOWN,DOWN,845,844
280,120,280,130,280,150,DOWN,EQUAL,30,20,19,True,True,False,True,True,False,DOWN,DOWN,845,844
280,130,280,140,280,150,DOWN,EQUAL,20,10,19,True,True,False,True,True,False,DOWN,DOWN,844,843
280,130,280,140,280,150,DOWN,EQUAL,20,10,19,True,True,False,True,True,False,DOWN,DOWN,844,843
280,140,280,150,280,150,DOWN,EQUAL,10,0,19,True,True,False,True,True,False,DOWN,DOWN,843,943
280,140,280,150,280,150,DOWN,EQUAL,10,0,19,True,True,False,True,True,False,DOWN,DOWN,843,943
280,150,280,160,390,370,EQUAL,EQUAL,330,320,20,True,True,False,True,True,False,DOWN,DOWN,943,942
280,150,280,160,390,370,EQUAL,EQUAL,330,320,20,True,True,False,True,True,False,DOWN,DOWN,943,942
280,160,280,170,390,370,DOWN,RIGHT,320,310,20,True,True,False,True,True,False,DOWN,DOWN,942,941
280,160,280,170,390,370,DOWN,RIGHT,320,310,20,True,True,False,True,True,False,DOWN,DOWN,942,941
280,170,280,180,390,370,DOWN,RIGHT,310,300,20,True,True,False,True,True,False,DOWN,DOWN,941,940
280,170,280,180,390,370,DOWN,RIGHT,310,300,20,True,True,False,True,True,False,DOWN,DOWN,941,940
280,180,280,190,390,370,DOWN,RIGHT,300,290,20,True,True,False,True,True,False,DOWN,DOWN,940,939
280,180,280,190,390,370,DOWN,RIGHT,300,290,20,True,True,False,True,True,False,DOWN,DOWN,940,939
280,190,280,200,390,370,DOWN,RIGHT,290,280,20,True,True,False,True,True,False,DOWN,DOWN,939,938
280,190,280,200,390,370,DOWN,RIGHT,290,280,20,True,True,False,True,True,False,DOWN,DOWN,939,938
280,200,280,210,390,370,DOWN,RIGHT,280,270,20,True,True,False,True,True,False,DOWN,DOWN,938,937
280,200,280,210,390,370,DOWN,RIGHT,280,270,20,True,True,False,True,True,False,DOWN,DOWN,938,937
280,210,280,220,390,370,DOWN,RIGHT,270,260,20,True,True,False,True,True,False,DOWN,DOWN,937,936
280,210,280,220,390,370,DOWN,RIGHT,270,260,20,True,True,False,True,True,False,DOWN,DOWN,937,936
280,220,280,230,390,370,DOWN,RIGHT,260,250,20,True,True,False,True,True,False,DOWN,DOWN,936,935
280,220,280,230,390,370,DOWN,RIGHT,260,250,20,True,True,False,True,True,False,DOWN,DOWN,936,935
280,230,280,240,390,370,DOWN,RIGHT,250,240,20,True,True,False,True,True,False,DOWN,DOWN,935,934
280,230,280,240,390,370,DOWN,RIGHT,250,240,20,True,True,False,True,True,False,DOWN,DOWN,935,934
280,240,280,250,390,370,DOWN,RIGHT,240,230,20,True,True,False,True,True,False,DOWN,DOWN,934,933
280,240,280,250,390,370,DOWN,RIGHT,240,230,20,True,True,False,True,True,False,DOWN,DOWN,934,933
280,250,280,260,390,370,DOWN,RIGHT,230,220,20,True,True,False,True,True,False,DOWN,DOWN,933,932
280,250,280,260,390,370,DOWN,RIGHT,230,220,20,True,True,False,True,True,False,DOWN,DOWN,933,932
280,260,280,270,390,370,DOWN,RIGHT,220,210,20,True,True,False,True,True,False,DOWN,DOWN,932,931
280,260,280,270,390,370,DOWN,RIGHT,220,210,20,True,True,False,True,True,False,DOWN,DOWN,932,931
280,270,280,280,390,370,DOWN,RIGHT,210,200,20,True,True,False,True,True,False,DOWN,DOWN,931,930
280,270,280,280,390,370,DOWN,RIGHT,210,200,20,True,True,False,True,True,False,DOWN,DOWN,931,930
280,280,280,290,390,370,DOWN,RIGHT,200,190,20,True,True,False,True,True,False,DOWN,DOWN,930,929
280,280,280,290,390,370,DOWN,RIGHT,200,190,20,True,True,False,True,True,False,DOWN,DOWN,930,929
280,290,280,300,390,370,DOWN,RIGHT,190,180,20,True,True,False,True,True,False,DOWN,DOWN,929,928
280,290,280,300,390,370,DOWN,RIGHT,190,180,20,True,True,False,True,True,False,DOWN,DOWN,929,928
280,300,280,310,390,370,DOWN,RIGHT,180,170,20,True,True,False,True,True,False,DOWN,DOWN,928,927
280,300,280,310,390,370,DOWN,RIGHT,180,170,20,True,True,False,True,True,False,DOWN,DOWN,928,927
280,310,280,320,390,370,DOWN,RIGHT,170,160,20,True,True,False,True,True,False,DOWN,DOWN,927,926
280,310,280,320,390,370,DOWN,RIGHT,170,160,20,True,True,False,True,True,False,DOWN,DOWN,927,926
280,320,280,330,390,370,DOWN,RIGHT,160,150,20,True,True,False,True,True,False,DOWN,DOWN,926,925
280,320,280,330,390,370,DOWN,RIGHT,160,150,20,True,True,False,True,True,False,DOWN,DOWN,926,925
280,330,280,340,390,370,DOWN,RIGHT,150,140,20,True,True,False,True,True,False,DOWN,DOWN,925,924
280,330,280,340,390,370,DOWN,RIGHT,150,140,20,True,True,False,True,True,False,DOWN,DOWN,925,924
280,340,280,350,390,370,DOWN,RIGHT,140,130,20,True,True,False,True,True,False,DOWN,DOWN,924,923
280,340,280,350,390,370,DOWN,RIGHT,140,130,20,True,True,False,True,True,False,DOWN,DOWN,924,923
280,350,280,360,390,370,DOWN,RIGHT,130,120,20,True,True,False,True,True,False,DOWN,DOWN,923,922
280,350,280,360,390,370,DOWN,RIGHT,130,120,20,True,True,False,True,True,False,DOWN,DOWN,923,922
280,360,280,370,390,370,DOWN,RIGHT,120,110,20,True,True,False,True,True,False,DOWN,DOWN,922,921
280,360,280,370,390,370,DOWN,RIGHT,120,110,20,True,True,False,True,True,False,DOWN,DOWN,922,921
280,370,290,370,390,370,EQUAL,RIGHT,110,100,20,True,True,False,True,True,False,DOWN,RIGHT,921,920
280,370,290,370,390,370,EQUAL,RIGHT,110,100,20,True,True,False,True,True,False,RIGHT,RIGHT,921,920
290,370,300,370,390,370,EQUAL,RIGHT,100,90,20,True,False,True,True,True,False,RIGHT,RIGHT,920,919
290,370,300,370,390,370,EQUAL,RIGHT,100,90,20,True,False,True,True,True,False,RIGHT,RIGHT,920,919
300,370,310,370,390,370,EQUAL,RIGHT,90,80,20,True,False,True,True,True,False,RIGHT,RIGHT,919,918
300,370,310,370,390,370,EQUAL,RIGHT,90,80,20,True,False,True,True,True,False,RIGHT,RIGHT,919,918
310,370,320,370,390,370,EQUAL,RIGHT,80,70,20,True,False,True,True,True,False,RIGHT,RIGHT,918,917
310,370,320,370,390,370,EQUAL,RIGHT,80,70,20,True,False,True,True,True,False,RIGHT,RIGHT,918,917
320,370,330,370,390,370,EQUAL,RIGHT,70,60,20,True,False,True,True,True,False,RIGHT,RIGHT,917,916
320,370,330,370,390,370,EQUAL,RIGHT,70,60,20,True,False,True,True,True,False,RIGHT,RIGHT,917,916
330,370,340,370,390,370,EQUAL,RIGHT,60,50,20,True,False,True,True,True,False,RIGHT,RIGHT,916,915
330,370,340,370,390,370,EQUAL,RIGHT,60,50,20,True,False,True,True,True,False,RIGHT,RIGHT,916,915
340,370,350,370,390,370,EQUAL,RIGHT,50,40,20,True,False,True,True,True,False,RIGHT,RIGHT,915,914
340,370,350,370,390,370,EQUAL,RIGHT,50,40,20,True,False,True,True,True,False,RIGHT,RIGHT,915,914
350,370,360,370,390,370,EQUAL,RIGHT,40,30,20,True,False,True,True,True,False,RIGHT,RIGHT,914,913
350,370,360,370,390,370,EQUAL,RIGHT,40,30,20,True,False,True,True,True,False,RIGHT,RIGHT,914,913
360,370,370,370,390,370,EQUAL,RIGHT,30,20,20,True,False,True,True,True,False,RIGHT,RIGHT,913,912
360,370,370,370,390,370,EQUAL,RIGHT,30,20,20,True,False,True,True,True,False,RIGHT,RIGHT,913,912
370,370,380,370,390,370,EQUAL,RIGHT,20,10,20,True,False,True,True,True,False,RIGHT,RIGHT,912,911
370,370,380,370,390,370,EQUAL,RIGHT,20,10,20,True,False,True,True,True,False,RIGHT,RIGHT,912,911
380,370,390,370,390,370,EQUAL,RIGHT,10,0,20,True,False,True,True,True,False,RIGHT,RIGHT,911,1011
380,370,390,370,390,370,EQUAL,RIGHT,10,0,20,True,False,True,True,True,False,RIGHT,RIGHT,911,1011
390,370,400,370,410,130,EQUAL,EQUAL,260,250,21,True,False,True,True,True,False,RIGHT,RIGHT,1011,1010
390,370,400,370,410,130,EQUAL,EQUAL,260,250,21,True,False,True,True,True,False,RIGHT,RIGHT,1011,1010
400,370,410,370,410,130,UP,RIGHT,250,240,21,True,False,True,True,True,False,RIGHT,RIGHT,1010,1009
400,370,410,370,410,130,UP,RIGHT,250,240,21,True,False,True,True,True,False,RIGHT,RIGHT,1010,1009
410,370,420,370,410,130,UP,EQUAL,240,250,21,True,False,True,True,True,False,RIGHT,RIGHT,1009,1008
410,370,420,370,410,130,UP,EQUAL,240,250,21,True,False,True,True,True,False,RIGHT,RIGHT,1009,1008
420,370,430,370,410,130,UP,LEFT,250,260,21,True,False,True,True,True,False,RIGHT,RIGHT,1008,1007
420,370,430,370,410,130,UP,LEFT,250,260,21,True,False,True,True,True,False,RIGHT,RIGHT,1008,1007
430,370,430,360,410,130,UP,LEFT,260,250,21,True,False,True,True,True,False,RIGHT,UP,1007,1006
430,370,430,360,410,130,UP,LEFT,260,250,21,True,False,True,True,True,False,UP,UP,1007,1006
430,360,430,350,410,130,UP,LEFT,250,240,21,True,True,True,False,True,False,UP,UP,1006,1005
430,360,430,350,410,130,UP,LEFT,250,240,21,True,True,True,False,True,False,UP,UP,1006,1005
430,350,430,340,410,130,UP,LEFT,240,230,21,True,True,True,False,True,False,UP,UP,1005,1004
430,350,430,340,410,130,UP,LEFT,240,230,21,True,True,True,False,True,False,UP,UP,1005,1004
430,340,430,330,410,130,UP,LEFT,230,220,21,True,True,True,False,True,False,UP,UP,1004,1003
430,340,430,330,410,130,UP,LEFT,230,220,21,True,True,True,False,True,False,UP,UP,1004,1003
430,330,430,320,410,130,UP,LEFT,220,210,21,True,True,True,False,True,False,UP,UP,1003,1002
430,330,430,320,410,130,UP,LEFT,220,210,21,True,True,True,False,True,False,UP,UP,1003,1002
430,320,430,310,410,130,UP,LEFT,210,200,21,True,True,True,False,True,False,UP,UP,1002,1001
430,320,430,310,410,130,UP,LEFT,210,200,21,True,True,True,False,True,False,UP,UP,1002,1001
430,310,430,300,410,130,UP,LEFT,200,190,21,True,True,True,False,True,False,UP,UP,1001,1000
430,310,430,300,410,130,UP,LEFT,200,190,21,True,True,True,False,True,False,UP,UP,1001,1000
430,300,420,300,410,130,UP,LEFT,190,180,21,True,True,True,False,True,False,UP,LEFT,1000,999
430,300,420,300,410,130,UP,LEFT,190,180,21,True,True,True,False,True,False,LEFT,LEFT,1000,999
420,300,410,300,410,130,UP,LEFT,180,170,21,False,True,True,True,True,False,LEFT,LEFT,999,998
420,300,410,300,410,130,UP,LEFT,180,170,21,False,True,True,True,True,False,LEFT,LEFT,999,998
410,300,400,300,410,130,UP,EQUAL,170,180,21,False,True,True,True,True,False,LEFT,LEFT,998,997
410,300,400,300,410,130,UP,EQUAL,170,180,21,False,True,True,True,True,False,LEFT,LEFT,998,997
400,300,400,290,410,130,UP,RIGHT,180,170,21,False,True,True,True,True,False,LEFT,UP,997,996
400,300,400,290,410,130,UP,RIGHT,180,170,21,False,True,True,True,False,False,UP,UP,997,996
400,290,400,280,410,130,UP,RIGHT,170,160,21,True,True,True,False,False,False,UP,UP,996,995
400,290,400,280,410,130,UP,RIGHT,170,160,21,True,True,True,False,False,False,UP,UP,996,995
400,280,400,270,410,130,UP,RIGHT,160,150,21,True,True,True,False,False,False,UP,UP,995,994
400,280,400,270,410,130,UP,RIGHT,160,150,21,True,True,True,False,False,False,UP,UP,995,994
400,270,400,260,410,130,UP,RIGHT,150,140,21,True,True,True,False,False,False,UP,UP,994,993
400,270,400,260,410,130,UP,RIGHT,150,140,21,True,True,True,False,False,False,UP,UP,994,993
400,260,400,250,410,130,UP,RIGHT,140,130,21,True,True,True,False,False,False,UP,UP,993,992
400,260,400,250,410,130,UP,RIGHT,140,130,21,True,True,True,False,False,False,UP,UP,993,992
400,250,400,240,410,130,UP,RIGHT,130,120,21,True,True,True,False,False,False,UP,UP,992,991
400,250,400,240,410,130,UP,RIGHT,130,120,21,True,True,True,False,False,False,UP,UP,992,991
400,240,400,230,410,130,UP,RIGHT,120,110,21,True,True,True,False,False,False,UP,UP,991,990
400,240,400,230,410,130,UP,RIGHT,120,110,21,True,True,True,False,False,False,UP,UP,991,990
400,230,400,220,410,130,UP,RIGHT,110,100,21,True,True,True,False,False,False,UP,UP,990,989
400,230,400,220,410,130,UP,RIGHT,110,100,21,True,True,True,False,False,False,UP,UP,990,989
400,220,410,220,410,130,UP,RIGHT,100,90,21,True,True,True,False,False,False,UP,RIGHT,989,988
400,220,410,220,410,130,UP,RIGHT,100,90,21,True,True,True,False,False,False,RIGHT,RIGHT,989,988
410,220,410,210,410,130,UP,EQUAL,90,80,21,True,False,True,True,False,False,RIGHT,UP,988,987
410,220,410,210,410,130,UP,EQUAL,90,80,21,True,False,True,True,False,False,UP,UP,988,987
410,210,410,200,410,130,UP,EQUAL,80,70,21,True,True,True,False,False,False,UP,UP,987,986
410,210,410,200,410,130,UP,EQUAL,80,70,21,True,True,True,False,False,False,UP,UP,987,986
410,200,410,190,410,130,UP,EQUAL,70,60,21,True,True,True,False,False,False,UP,UP,986,985
410,200,410,190,410,130,UP,EQUAL,70,60,21,True,True,True,False,False,False,UP,UP,986,985
410,190,410,180,410,130,UP,EQUAL,60,50,21,True,True,True,False,False,False,UP,UP,985,984
410,190,410,180,410,130,UP,EQUAL,60,50,21,True,True,True,False,False,False,UP,UP,985,984
410,180,410,170,410,130,UP,EQUAL,50,40,21,True,True,True,False,False,False,UP,UP,984,983
410,180,410,170,410,130,UP,EQUAL,50,40,21,True,True,True,False,False,False,UP,UP,984,983
410,170,410,160,410,130,UP,EQUAL,40,30,21,True,True,True,False,False,False,UP,UP,983,982
410,170,410,160,410,130,UP,EQUAL,40,30,21,True,True,True,False,False,False,UP,UP,983,982
410,160,410,150,410,130,UP,EQUAL,30,20,21,True,True,True,False,False,False,UP,UP,982,981
410,160,410,150,410,130,UP,EQUAL,30,20,21,True,True,True,False,False,False,UP,UP,982,981
410,150,410,140,410,130,UP,EQUAL,20,10,21,True,True,True,False,False,False,UP,UP,981,980
410,150,410,140,410,130,UP,EQUAL,20,10,21,True,True,True,False,False,False,UP,UP,981,980
410,140,410,130,410,130,UP,EQUAL,10,0,21,True,True,True,False,False,False,UP,UP,980,1080
410,140,410,130,410,130,UP,EQUAL,10,0,21,True,True,True,False,False,False,UP,UP,980,1080
410,130,410,120,250,200,EQUAL,EQUAL,230,240,22,True,True,True,False,False,False,UP,UP,1080,1079
410,130,410,120,250,200,EQUAL,EQUAL,230,240,22,True,True,True,False,False,False,UP,UP,1080,1079
410,120,410,110,250,200,DOWN,LEFT,240,250,22,True,True,True,False,False,False,UP,UP,1079,1078
410,120,410,110,250,200,DOWN,LEFT,240,250,22,True,True,True,False,False,False,UP,UP,1079,1078
410,110,410,100,250,200,DOWN,LEFT,250,260,22,True,True,True,False,False,False,UP,UP,1078,1077
410,110,410,100,250,200,DOWN,LEFT,250,260,22,True,True,True,False,False,False,UP,UP,1078,1077
410,100,410,90,250,200,DOWN,LEFT,260,270,22,True,True,True,False,False,False,UP,UP,1077,1076
410,100,410,90,250,200,DOWN,LEFT,260,270,22,True,True,True,False,False,False,UP,UP,1077,1076
410,90,400,90,250,200,DOWN,LEFT,270,260,22,True,True,True,False,False,False,UP,LEFT,1076,1075
410,90,400,90,250,200,DOWN,LEFT,270,260,22,True,True,True,False,False,False,LEFT,LEFT,1076,1075
400,90,390,90,250,200,DOWN,LEFT,260,250,22,False,True,True,True,False,False,LEFT,LEFT,1075,1074
400,90,390,90,250,200,DOWN,LEFT,260,250,22,False,True,True,True,False,False,LEFT,LEFT,1075,1074
390,90,380,90,250,200,DOWN,LEFT,250,240,22,False,True,True,True,False,False,LEFT,LEFT,1074,1073
390,90,380,90,250,200,DOWN,LEFT,250,240,22,False,True,True,True,False,False,LEFT,LEFT,1074,1073
380,90,370,90,250,200,DOWN,LEFT,240,230,22,False,True,True,True,False,False,LEFT,LEFT,1073,1072
380,90,370,90,250,200,DOWN,LEFT,240,230,22,False,True,True,True,False,False,LEFT,LEFT,1073,1072
370,90,360,90,250,200,DOWN,LEFT,230,220,22,False,True,True,True,False,False,LEFT,LEFT,1072,1071
370,90,360,90,250,200,DOWN,LEFT,230,220,22,False,True,True,True,False,False,LEFT,LEFT,1072,1071
360,90,350,90,250,200,DOWN,LEFT,220,210,22,False,True,True,True,False,False,LEFT,LEFT,1071,1070
360,90,350,90,250,200,DOWN,LEFT,220,210,22,False,True,True,True,False,False,LEFT,LEFT,1071,1070
350,90,340,90,250,200,DOWN,LEFT,210,200,22,False,True,True,True,False,False,LEFT,LEFT,1070,1069
350,90,340,90,250,200,DOWN,LEFT,210,200,22,False,True,True,True,False,False,LEFT,LEFT,1070,1069
340,90,330,90,250,200,DOWN,LEFT,200,190,22,False,True,True,True,False,False,LEFT,LEFT,1069,1068
340,90,330,90,250,200,DOWN,LEFT,200,190,22,False,True,True,True,False,False,LEFT,LEFT,1069,1068
330,90,320,90,250,200,DOWN,LEFT,190,180,22,False,True,True,True,False,False,LEFT,LEFT,1068,1067
330,90,320,90,250,200,DOWN,LEFT,190,180,22,False,True,True,True,False,False,LEFT,LEFT,1068,1067
320,90,310,90,250,200,DOWN,LEFT,180,170,22,False,True,True,True,False,False,LEFT,LEFT,1067,1066
320,90,310,90,250,200,DOWN,LEFT,180,170,22,False,True,True,True,False,False,LEFT,LEFT,1067,1066
310,90,300,90,250,200,DOWN,LEFT,170,160,22,False,True,True,True,False,False,LEFT,LEFT,1066,1065
310,90,300,90,250,200,DOWN,LEFT,170,160,22,False,True,True,True,False,False,LEFT,LEFT,1066,1065
300,90,290,90,250,200,DOWN,LEFT,160,150,22,False,True,True,True,False,False,LEFT,LEFT,1065,1064
300,90,290,90,250,200,DOWN,LEFT,160,150,22,False,True,True,True,False,False,LEFT,LEFT,1065,1064
290,90,280,90,250,200,DOWN,LEFT,150,140,22,False,True,True,True,False,False,LEFT,LEFT,1064,1063
290,90,280,90,250,200,DOWN,LEFT,150,140,22,False,True,True,True,False,False,LEFT,LEFT,1064,1063
280,90,270,90,250,200,DOWN,LEFT,140,130,22,False,True,True,True,False,False,LEFT,LEFT,1063,1062
280,90,270,90,250,200,DOWN,LEFT,140,130,22,False,True,True,True,False,False,LEFT,LEFT,1063,1062
270,90,260,90,250,200,DOWN,LEFT,130,120,22,False,True,True,True,False,False,LEFT,LEFT,1062,1061
270,90,260,90,250,200,DOWN,LEFT,130,120,22,False,True,True,True,False,False,LEFT,LEFT,1062,1061
260,90,250,90,250,200,DOWN,LEFT,120,110,22,False,True,True,True,False,False,LEFT,LEFT,1061,1060
260,90,250,90,250,200,DOWN,LEFT,120,110,22,False,True,True,True,False,False,LEFT,LEFT,1061,1060
250,90,250,100,250,200,DOWN,EQUAL,110,100,22,False,True,True,True,False,False,LEFT,DOWN,1060,1059
250,90,250,100,250,200,DOWN,EQUAL,110,100,22,False,True,True,True,True,False,DOWN,DOWN,1060,1059
250,100,250,110,250,200,DOWN,EQUAL,100,90,22,True,True,False,True,True,False,DOWN,DOWN,1059,1058
250,100,250,110,250,200,DOWN,EQUAL,100,90,22,True,True,False,True,True,False,DOWN,DOWN,1059,1058
250,110,250,120,250,200,DOWN,EQUAL,90,80,22,True,True,False,True,True,False,DOWN,DOWN,1058,1057
250,110,250,120,250,200,DOWN,EQUAL,90,80,22,True,True,False,True,True,False,DOWN,DOWN,1058,1057
250,120,250,130,250,200,DOWN,EQUAL,80,70,22,True,True,False,True,True,False,DOWN,DOWN,1057,1056
250,120,250,130,250,200,DOWN,EQUAL,80,70,22,True,True,False,True,True,False,DOWN,DOWN,1057,1056
250,130,250,140,250,200,DOWN,EQUAL,70,60,22,True,True,False,True,True,False,DOWN,DOWN,1056,1055
250,130,250,140,250,200,DOWN,EQUAL,70,60,22,True,True,False,True,True,False,DOWN,DOWN,1056,1055
250,140,250,150,250,200,DOWN,EQUAL,60,50,22,True,True,False,True,True,False,DOWN,DOWN,1055,1054
250,140,250,150,250,200,DOWN,EQUAL,60,50,22,True,True,False,True,True,False,DOWN,DOWN,1055,1054
250,150,250,160,250,200,DOWN,EQUAL,50,40,22,True,True,False,True,True,False,DOWN,DOWN,1054,1053
250,150,250,160,250,200,DOWN,EQUAL,50,40,22,True,True,False,True,True,False,DOWN,DOWN,1054,1053
250,160,250,170,250,200,DOWN,EQUAL,40,30,22,True,True,False,True,True,False,DOWN,DOWN,1053,1052
250,160,250,170,250,200,DOWN,EQUAL,40,30,22,True,True,False,True,True,False,DOWN,DOWN,1053,1052
250,170,250,180,250,200,DOWN,EQUAL,30,20,22,True,True,False,True,True,False,DOWN,DOWN,1052,1051
250,170,250,180,250,200,DOWN,EQUAL,30,20,22,True,True,False,True,True,False,DOWN,DOWN,1052,1051
250,180,250,190,250,200,DOWN,EQUAL,20,10,22,True,True,False,True,True,False,DOWN,DOWN,1051,1050
250,180,250,190,250,200,DOWN,EQUAL,20,10,22,True,True,False,True,True,False,DOWN,DOWN,1051,1050
250,190,250,200,250,200,DOWN,EQUAL,10,0,22,True,True,False,True,True,False,DOWN,DOWN,1050,1150
250,190,250,200,250,200,DOWN,EQUAL,10,0,22,True,True,False,True,True,False,DOWN,DOWN,1050,1150
250,200,250,210,20,90,EQUAL,EQUAL,340,350,23,True,True,False,True,True,False,DOWN,DOWN,1150,1149
250,200,250,210,20,90,EQUAL,EQUAL,340,350,23,True,True,False,True,True,False,DOWN,DOWN,1150,1149
250,210,250,220,20,90,UP,LEFT,350,360,23,True,True,False,True,True,False,DOWN,DOWN,1149,1148
250,210,250,220,20,90,UP,LEFT,350,360,23,True,True,False,True,True,False,DOWN,DOWN,1149,1148
250,220,250,230,20,90,UP,LEFT,360,370,23,True,True,False,True,True,False,DOWN,DOWN,1148,1147
250,220,250,230,20,90,UP,LEFT,360,370,23,True,True,False,True,True,False,DOWN,DOWN,1148,1147
250,230,250,240,20,90,UP,LEFT,370,380,23,True,True,False,True,True,False,DOWN,DOWN,1147,1146
250,230,250,240,20,90,UP,LEFT,370,380,23,True,True,False,True,True,False,DOWN,DOWN,1147,1146
250,240,240,240,20,90,UP,LEFT,380,370,23,True,True,False,True,True,False,DOWN,LEFT,1146,1145
250,240,240,240,20,90,UP,LEFT,380,370,23,True,True,False,True,False,False,LEFT,LEFT,1146,1145
240,240,230,240,20,90,UP,LEFT,370,360,23,False,True,True,True,False,False,LEFT,LEFT,1145,1144
240,240,230,240,20,90,UP,LEFT,370,360,23,False,True,True,True,False,False,LEFT,LEFT,1145,1144
230,240,220,240,20,90,UP,LEFT,360,350,23,False,True,True,True,False,False,LEFT,LEFT,1144,1143
230,240,220,240,20,90,UP,LEFT,360,350,23,False,True,True,True,False,False,LEFT,LEFT,1144,1143
220,240,210,240,20,90,UP,LEFT,350,340,23,False,True,True,True,False,False,LEFT,LEFT,1143,1142
220,240,210,240,20,90,UP,LEFT,350,340,23,False,True,True,True,False,False,LEFT,LEFT,1143,1142
210,240,200,240,20,90,UP,LEFT,340,330,23,False,True,True,True,False,False,LEFT,LEFT,1142,1141
210,240,200,240,20,90,UP,LEFT,340,330,23,False,True,True,True,False,False,LEFT,LEFT,1142,1141
200,240,190,240,20,90,UP,LEFT,330,320,23,False,True,True,True,False,False,LEFT,LEFT,1141,1140
200,240,190,240,20,90,UP,LEFT,330,320,23,False,True,True,True,False,False,LEFT,LEFT,1141,1140
190,240,180,240,20,90,UP,LEFT,320,310,23,False,True,True,True,False,False,LEFT,LEFT,1140,1139
190,240,180,240,20,90,UP,LEFT,320,310,23,False,True,True,True,False,False,LEFT,LEFT,1140,1139
180,240,170,240,20,90,UP,LEFT,310,300,23,False,True,True,True,False,False,LEFT,LEFT,1139,1138
180,240,170,240,20,90,UP,LEFT,310,300,23,False,True,True,True,False,False,LEFT,LEFT,1139,1138
170,240,160,240,20,90,UP,LEFT,300,290,23,False,True,True,True,False,False,LEFT,LEFT,1138,1137
170,240,160,240,20,90,UP,LEFT,300,290,23,False,True,True,True,False,False,LEFT,LEFT,1138,1137
160,240,150,240,20,90,UP,LEFT,290,280,23,False,True,True,True,False,False,LEFT,LEFT,1137,1136
160,240,150,240,20,90,UP,LEFT,290,280,23,False,True,True,True,False,False,LEFT,LEFT,1137,1136
150,240,140,240,20,90,UP,LEFT,280,270,23,False,True,True,True,False,False,LEFT,LEFT,1136,1135
150,240,140,240,20,90,UP,LEFT,280,270,23,False,True,True,True,False,False,LEFT,LEFT,1136,1135
140,240,130,240,20,90,UP,LEFT,270,260,23,False,True,True,True,False,False,LEFT,LEFT,1135,1134
140,240,130,240,20,90,UP,LEFT,270,260,23,False,True,True,True,False,False,LEFT,LEFT,1135,1134
130,240,120,240,20,90,UP,LEFT,260,250,23,False,True,True,True,False,False,LEFT,LEFT,1134,1133
130,240,120,240,20,90,UP,LEFT,260,250,23,False,True,True,True,False,False,LEFT,LEFT,1134,1133
120,240,110,240,20,90,UP,LEFT,250,240,23,False,True,True,True,False,False,LEFT,LEFT,1133,1132
120,240,110,240,20,90,UP,LEFT,250,240,23,False,True,True,True,False,False,LEFT,LEFT,1133,1132
110,240,100,240,20,90,UP,LEFT,240,230,23,False,True,True,True,False,False,LEFT,LEFT,1132,1131
110,240,100,240,20,90,UP,LEFT,240,230,23,False,True,True,True,False,False,LEFT,LEFT,1132,1131
100,240,90,240,20,90,UP,LEFT,230,220,23,False,True,True,True,False,False,LEFT,LEFT,1131,1130
100,240,90,240,20,90,UP,LEFT,230,220,23,False,True,True,True,False,False,LEFT,LEFT,1131,1130
90,240,80,240,20,90,UP,LEFT,220,210,23,False,True,True,True,False,False,LEFT,LEFT,1130,1129
90,240,80,240,20,90,UP,LEFT,220,210,23,False,True,True,True,False,False,LEFT,LEFT,1130,1129
80,240,70,240,20,90,UP,LEFT,210,200,23,False,True,True,True,False,False,LEFT,LEFT,1129,1128
80,240,70,240,20,90,UP,LEFT,210,200,23,False,True,True,True,False,False,LEFT,LEFT,1129,1128
70,240,60,240,20,90,UP,LEFT,200,190,23,False,True,True,True,False,False,LEFT,LEFT,1128,1127
70,240,60,240,20,90,UP,LEFT,200,190,23,False,True,True,True,False,False,LEFT,LEFT,1128,1127
60,240,50,240,20,90,UP,LEFT,190,180,23,False,True,True,True,False,False,LEFT,LEFT,1127,1126
60,240,50,240,20,90,UP,LEFT,190,180,23,False,True,True,True,False,False,LEFT,LEFT,1127,1126
50,240,40,240,20,90,UP,LEFT,180,170,23,False,True,True,True,False,False,LEFT,LEFT,1126,1125
50,240,40,240,20,90,UP,LEFT,180,170,23,False,True,True,True,False,False,LEFT,LEFT,1126,1125
40,240,30,240,20,90,UP,LEFT,170,160,23,False,True,True,True,False,False,LEFT,LEFT,1125,1124
40,240,30,240,20,90,UP,LEFT,170,160,23,False,True,True,True,False,False,LEFT,LEFT,1125,1124
30,240,30,230,20,90,UP,LEFT,160,150,23,False,True,True,True,False,False,LEFT,UP,1124,1123
30,240,30,230,20,90,UP,LEFT,160,150,23,False,True,True,True,False,False,UP,UP,1124,1123
30,230,30,220,20,90,UP,LEFT,150,140,23,True,True,True,False,False,False,UP,UP,1123,1122
30,230,30,220,20,90,UP,LEFT,150,140,23,True,True,True,False,False,False,UP,UP,1123,1122
30,220,30,210,20,90,UP,LEFT,140,130,23,True,True,True,False,False,False,UP,UP,1122,1121
30,220,30,210,20,90,UP,LEFT,140,130,23,True,True,True,False,False,False,UP,UP,1122,1121
30,210,30,200,20,90,UP,LEFT,130,120,23,True,True,True,False,False,False,UP,UP,1121,1120
30,210,30,200,20,90,UP,LEFT,130,120,23,True,True,True,False,False,False,UP,UP,1121,1120
30,200,30,190,20,90,UP,LEFT,120,110,23,True,True,True,False,False,False,UP,UP,1120,1119
30,200,30,190,20,90,UP,LEFT,120,110,23,True,True,True,False,False,False,UP,UP,1120,1119
30,190,20,190,20,90,UP,LEFT,110,100,23,True,True,True,False,False,False,UP,LEFT,1119,1118
30,190,20,190,20,90,UP,LEFT,110,100,23,True,True,True,False,False,False,LEFT,LEFT,1119,1118
20,190,20,180,20,90,UP,EQUAL,100,90,23,False,True,True,True,False,False,LEFT,UP,1118,1117
20,190,20,180,20,90,UP,EQUAL,100,90,23,False,True,True,True,False,False,UP,UP,1118,1117
20,180,20,170,20,90,UP,EQUAL,90,80,23,True,True,True,False,False,False,UP,UP,1117,1116
20,180,20,170,20,90,UP,EQUAL,90,80,23,True,True,True,False,False,False,UP,UP,1117,1116
20,170,20,160,20,90,UP,EQUAL,80,70,23,True,True,True,False,False,False,UP,UP,1116,1115
20,170,20,160,20,90,UP,EQUAL,80,70,23,True,True,True,False,False,False,UP,UP,1116,1115
20,160,20,150,20,90,UP,EQUAL,70,60,23,True,True,True,False,False,False,UP,UP,1115,1114
20,160,20,150,20,90,UP,EQUAL,70,60,23,True,True,True,False,False,False,UP,UP,1115,1114
20,150,20,140,20,90,UP,EQUAL,60,50,23,True,True,True,False,False,False,UP,UP,1114,1113
20,150,20,140,20,90,UP,EQUAL,60,50,23,True,True,True,False,False,False,UP,UP,1114,1113
20,140,20,130,20,90,UP,EQUAL,50,40,23,True,True,True,False,False,False,UP,UP,1113,1112
20,140,20,130,20,90,UP,EQUAL,50,40,23,True,True,True,False,False,False,UP,UP,1113,1112
20,130,20,120,20,90,UP,EQUAL,40,30,23,True,True,True,False,False,False,UP,UP,1112,1111
20,130,20,120,20,90,UP,EQUAL,40,30,23,True,True,True,False,False,False,UP,UP,1112,1111
20,120,20,110,20,90,UP,EQUAL,30,20,23,True,True,True,False,False,False,UP,UP,1111,1110
20,120,20,110,20,90,UP,EQUAL,30,20,23,True,True,True,False,False,False,UP,UP,1111,1110
20,110,20,100,20,90,UP,EQUAL,20,10,23,True,True,True,False,False,False,UP,UP,1110,1109
20,110,20,100,20,90,UP,EQUAL,20,10,23,True,True,True,False,False,False,UP,UP,1110,1109
20,100,20,90,20,90,UP,EQUAL,10,0,23,True,True,True,False,False,False,UP,UP,1109,1209
20,100,20,90,20,90,UP,EQUAL,10,0,23,True,True,True,False,False,False,UP,UP,1109,1209
20,90,20,80,240,110,EQUAL,EQUAL,240,250,24,True,True,True,False,False,False,UP,UP,1209,1208
20,90,20,80,240,110,EQUAL,EQUAL,240,250,24,True,True,True,False,False,False,UP,UP,1209,1208
20,80,30,80,240,110,DOWN,RIGHT,250,240,24,True,True,True,False,False,False,UP,RIGHT,1208,1207
20,80,30,80,240,110,DOWN,RIGHT,250,240,24,True,True,True,False,False,False,RIGHT,RIGHT,1208,1207
30,80,40,80,240,110,DOWN,RIGHT,240,230,24,True,False,True,True,False,False,RIGHT,RIGHT,1207,1206
30,80,40,80,240,110,DOWN,RIGHT,240,230,24,True,False,True,True,False,False,RIGHT,RIGHT,1207,1206
40,80,50,80,240,110,DOWN,RIGHT,230,220,24,True,False,True,True,False,False,RIGHT,RIGHT,1206,1205
40,80,50,80,240,110,DOWN,RIGHT,230,220,24,True,False,True,True,False,False,RIGHT,RIGHT,1206,1205
50,80,60,80,240,110,DOWN,RIGHT,220,210,24,True,False,True,True,False,False,RIGHT,RIGHT,1205,1204
50,80,60,80,240,110,DOWN,RIGHT,220,210,24,True,False,True,True,False,False,RIGHT,RIGHT,1205,1204
60,80,70,80,240,110,DOWN,RIGHT,210,200,24,True,False,True,True,False,False,RIGHT,RIGHT,1204,1203
60,80,70,80,240,110,DOWN,RIGHT,210,200,24,True,False,True,True,False,False,RIGHT,RIGHT,1204,1203
70,80,80,80,240,110,DOWN,RIGHT,200,190,24,True,False,True,True,False,False,RIGHT,RIGHT,1203,1202
70,80,80,80,240,110,DOWN,RIGHT,200,190,24,True,False,True,True,False,False,RIGHT,RIGHT,1203,1202
80,80,90,80,240,110,DOWN,RIGHT,190,180,24,True,False,True,True,False,False,RIGHT,RIGHT,1202,1201
80,80,90,80,240,110,DOWN,RIGHT,190,180,24,True,False,True,True,False,False,RIGHT,RIGHT,1202,1201
90,80,90,90,240,110,DOWN,RIGHT,180,170,24,True,False,True,True,False,False,RIGHT,DOWN,1201,1200
90,80,90,90,240,110,DOWN,RIGHT,180,170,24,True,False,True,True,True,False,DOWN,DOWN,1201,1200
90,90,90,100,240,110,DOWN,RIGHT,170,160,24,True,True,False,True,True,False,DOWN,DOWN,1200,1199
90,90,90,100,240,110,DOWN,RIGHT,170,160,24,True,True,False,True,True,False,DOWN,DOWN,1200,1199
90,100,90,110,240,110,DOWN,RIGHT,160,150,24,True,True,False,True,True,False,DOWN,DOWN,1199,1198
90,100,90,110,240,110,DOWN,RIGHT,160,150,24,True,True,False,True,True,False,DOWN,DOWN,1199,1198
90,110,100,110,240,110,EQUAL,RIGHT,150,140,24,True,True,False,True,True,False,DOWN,RIGHT,1198,1197
90,110,100,110,240,110,EQUAL,RIGHT,150,140,24,True,True,False,True,False,False,RIGHT,RIGHT,1198,1197
100,110,110,110,240,110,EQUAL,RIGHT,140,130,24,True,False,True,True,False,False,RIGHT,RIGHT,1197,1196
100,110,110,110,240,110,EQUAL,RIGHT,140,130,24,True,False,True,True,False,False,RIGHT,RIGHT,1197,1196
110,110,120,110,240,110,EQUAL,RIGHT,130,120,24,True,False,True,True,False,False,RIGHT,RIGHT,1196,1195
110,110,120,110,240,110,EQUAL,RIGHT,130,120,24,True,False,True,True,False,False,RIGHT,RIGHT,1196,1195
120,110,130,110,240,110,EQUAL,RIGHT,120,110,24,True,False,True,True,False,False,RIGHT,RIGHT,1195,1194
120,110,130,110,240,110,EQUAL,RIGHT,120,110,24,True,False,True,True,False,False,RIGHT,RIGHT,1195,1194
130,110,140,110,240,110,EQUAL,RIGHT,110,100,24,True,False,True,True,False,False,RIGHT,RIGHT,1194,1193
130,110,140,110,240,110,EQUAL,RIGHT,110,100,24,True,False,True,True,False,False,RIGHT,RIGHT,1194,1193
140,110,150,110,240,110,EQUAL,RIGHT,100,90,24,True,False,True,True,False,False,RIGHT,RIGHT,1193,1192
140,110,150,110,240,110,EQUAL,RIGHT,100,90,24,True,False,True,True,False,False,RIGHT,RIGHT,1193,1192
150,110,160,110,240,110,EQUAL,RIGHT,90,80,24,True,False,True,True,False,False,RIGHT,RIGHT,1192,1191
150,110,160,110,240,110,EQUAL,RIGHT,90,80,24,True,False,True,True,False,False,RIGHT,RIGHT,1192,1191
160,110,170,110,240,110,EQUAL,RIGHT,80,70,24,True,False,True,True,False,False,RIGHT,RIGHT,1191,1190
160,110,170,110,240,110,EQUAL,RIGHT,80,70,24,True,False,True,True,False,False,RIGHT,RIGHT,1191,1190
170,110,180,110,240,110,EQUAL,RIGHT,70,60,24,True,False,True,True,False,False,RIGHT,RIGHT,1190,1189
170,110,180,110,240,110,EQUAL,RIGHT,70,60,24,True,False,True,True,False,False,RIGHT,RIGHT,1190,1189
180,110,190,110,240,110,EQUAL,RIGHT,60,50,24,True,False,True,True,False,False,RIGHT,RIGHT,1189,1188
180,110,190,110,240,110,EQUAL,RIGHT,60,50,24,True,False,True,True,False,False,RIGHT,RIGHT,1189,1188
190,110,200,110,240,110,EQUAL,RIGHT,50,40,24,True,False,True,True,False,False,RIGHT,RIGHT,1188,1187
190,110,200,110,240,110,EQUAL,RIGHT,50,40,24,True,False,True,True,False,False,RIGHT,RIGHT,1188,1187
200,110,210,110,240,110,EQUAL,RIGHT,40,30,24,True,False,True,True,False,False,RIGHT,RIGHT,1187,1186
200,110,210,110,240,110,EQUAL,RIGHT,40,30,24,True,False,True,True,False,False,RIGHT,RIGHT,1187,1186
210,110,220,110,240,110,EQUAL,RIGHT,30,20,24,True,False,True,True,False,False,RIGHT,RIGHT,1186,1185
210,110,220,110,240,110,EQUAL,RIGHT,30,20,24,True,False,True,True,False,False,RIGHT,RIGHT,1186,1185
220,110,230,110,240,110,EQUAL,RIGHT,20,10,24,True,False,True,True,False,False,RIGHT,RIGHT,1185,1184
220,110,230,110,240,110,EQUAL,RIGHT,20,10,24,True,False,True,True,False,False,RIGHT,RIGHT,1185,1184
230,110,240,110,240,110,EQUAL,RIGHT,10,0,24,True,False,True,True,False,False,RIGHT,RIGHT,1184,1284
230,110,240,110,240,110,EQUAL,RIGHT,10,0,24,True,False,True,True,False,False,RIGHT,RIGHT,1184,1284
240,110,250,110,160,250,EQUAL,EQUAL,220,230,25,True,False,True,True,False,False,RIGHT,RIGHT,1284,1283
240,110,250,110,160,250,EQUAL,EQUAL,220,230,25,True,False,True,True,False,False,RIGHT,RIGHT,1284,1283
250,110,260,110,160,250,DOWN,LEFT,230,240,25,True,False,True,True,False,False,RIGHT,RIGHT,1283,1282
250,110,260,110,160,250,DOWN,LEFT,230,240,25,True,False,True,True,False,False,RIGHT,RIGHT,1283,1282
260,110,270,110,160,250,DOWN,LEFT,240,250,25,True,False,True,True,False,False,RIGHT,RIGHT,1282,1281
260,110,270,110,160,250,DOWN,LEFT,240,250,25,True,False,True,True,False,False,RIGHT,RIGHT,1282,1281
270,110,280,110,160,250,DOWN,LEFT,250,260,25,True,False,True,True,False,False,RIGHT,RIGHT,1281,1280
270,110,280,110,160,250,DOWN,LEFT,250,260,25,True,False,True,True,False,False,RIGHT,RIGHT,1281,1280
280,110,280,120,160,250,DOWN,LEFT,260,250,25,True,False,True,True,False,False,RIGHT,DOWN,1280,1279
280,110,280,120,160,250,DOWN,LEFT,260,250,25,True,False,True,True,False,False,DOWN,DOWN,1280,1279
280,120,280,130,160,250,DOWN,LEFT,250,240,25,True,True,False,True,False,False,DOWN,DOWN,1279,1278
280,120,280,130,160,250,DOWN,LEFT,250,240,25,True,True,False,True,False,False,DOWN,DOWN,1279,1278
280,130,280,140,160,250,DOWN,LEFT,240,230,25,True,True,False,True,False,False,DOWN,DOWN,1278,1277
280,130,280,140,160,250,DOWN,LEFT,240,230,25,True,True,False,True,False,False,DOWN,DOWN,1278,1277
280,140,280,150,160,250,DOWN,LEFT,230,220,25,True,True,False,True,False,False,DOWN,DOWN,1277,1276
280,140,280,150,160,250,DOWN,LEFT,230,220,25,True,True,False,True,False,False,DOWN,DOWN,1277,1276
280,150,270,150,160,250,DOWN,LEFT,220,210,25,True,True,False,True,False,False,DOWN,LEFT,1276,1275
280,150,270,150,160,250,DOWN,LEFT,220,210,25,True,True,False,True,False,False,LEFT,LEFT,1276,1275
270,150,260,150,160,250,DOWN,LEFT,210,200,25,False,True,True,True,False,False,LEFT,LEFT,1275,1274
270,150,260,150,160,250,DOWN,LEFT,210,200,25,False,True,True,True,False,False,LEFT,LEFT,1275,1274
260,150,250,150,160,250,DOWN,LEFT,200,190,25,False,True,True,True,False,False,LEFT,LEFT,1274,1273
260,150,250,150,160,250,DOWN,LEFT,200,190,25,False,True,True,True,False,False,LEFT,LEFT,1274,1273
250,150,240,150,160,250,DOWN,LEFT,190,180,25,False,True,True,True,False,False,LEFT,LEFT,1273,1272
250,150,240,150,160,250,DOWN,LEFT,190,180,25,False,True,True,True,False,False,LEFT,LEFT,1273,1272
240,150,230,150,160,250,DOWN,LEFT,180,170,25,False,True,True,True,False,False,LEFT,LEFT,1272,1271
240,150,230,150,160,250,DOWN,LEFT,180,170,25,False,True,True,True,False,False,LEFT,LEFT,1272,1271
230,150,220,150,160,250,DOWN,LEFT,170,160,25,False,True,True,True,False,False,LEFT,LEFT,1271,1270
230,150,220,150,160,250,DOWN,LEFT,170,160,25,False,True,True,True,False,False,LEFT,LEFT,1271,1270
220,150,210,150,160,250,DOWN,LEFT,160,150,25,False,True,True,True,False,False,LEFT,LEFT,1270,1269
220,150,210,150,160,250,DOWN,LEFT,160,150,25,False,True,True,True,False,False,LEFT,LEFT,1270,1269
210,150,200,150,160,250,DOWN,LEFT,150,140,25,False,True,True,True,False,False,LEFT,LEFT,1269,1268
210,150,200,150,160,250,DOWN,LEFT,150,140,25,False,True,True,True,False,False,LEFT,LEFT,1269,1268
200,150,190,150,160,250,DOWN,LEFT,140,130,25,False,True,True,True,False,False,LEFT,LEFT,1268,1267
200,150,190,150,160,250,DOWN,LEFT,140,130,25,False,True,True,True,False,False,LEFT,LEFT,1268,1267
190,150,190,160,160,250,DOWN,LEFT,130,120,25,False,True,True,True,False,False,LEFT,DOWN,1267,1266
190,150,190,160,160,250,DOWN,LEFT,130,120,25,False,True,True,True,False,False,DOWN,DOWN,1267,1266
190,160,190,170,160,250,DOWN,LEFT,120,110,25,True,True,False,True,False,False,DOWN,DOWN,1266,1265
190,160,190,170,160,250,DOWN,LEFT,120,110,25,True,True,False,True,False,False,DOWN,DOWN,1266,1265
190,170,190,180,160,250,DOWN,LEFT,110,100,25,True,True,False,True,False,False,DOWN,DOWN,1265,1264
190,170,190,180,160,250,DOWN,LEFT,110,100,25,True,True,False,True,False,False,DOWN,DOWN,1265,1264
190,180,190,190,160,250,DOWN,LEFT,100,90,25,True,True,False,True,False,False,DOWN,DOWN,1264,1263
190,180,190,190,160,250,DOWN,LEFT,100,90,25,True,True,False,True,False,False,DOWN,DOWN,1264,1263
190,190,190,200,160,250,DOWN,LEFT,90,80,25,True,True,False,True,False,False,DOWN,DOWN,1263,1262
190,190,190,200,160,250,DOWN,LEFT,90,80,25,True,True,False,True,False,False,DOWN,DOWN,1263,1262
190,200,190,210,160,250,DOWN,LEFT,80,70,25,True,True,False,True,False,False,DOWN,DOWN,1262,1261
190,200,190,210,160,250,DOWN,LEFT,80,70,25,True,True,False,True,False,False,DOWN,DOWN,1262,1261
190,210,190,220,160,250,DOWN,LEFT,70,60,25,True,True,False,True,False,False,DOWN,DOWN,1261,1260
190,210,190,220,160,250,DOWN,LEFT,70,60,25,True,True,False,True,False,False,DOWN,DOWN,1261,1260
190,220,190,230,160,250,DOWN,LEFT,60,50,25,True,True,False,True,False,False,DOWN,DOWN,1260,1259
190,220,190,230,160,250,DOWN,LEFT,60,50,25,True,True,False,True,False,False,DOWN,DOWN,1260,1259
190,230,190,240,160,250,DOWN,LEFT,50,40,25,True,True,False,True,False,False,DOWN,DOWN,1259,1258
190,230,190,240,160,250,DOWN,LEFT,50,40,25,True,True,False,True,False,False,DOWN,DOWN,1259,1258
190,240,190,250,160,250,DOWN,LEFT,40,30,25,True,True,False,True,False,False,DOWN,DOWN,1258,1257
190,240,190,250,160,250,DOWN,LEFT,40,30,25,True,True,False,True,False,False,DOWN,DOWN,1258,1257
190,250,190,260,160,250,EQUAL,LEFT,30,40,25,True,True,False,True,False,False,DOWN,DOWN,1257,1256
190,250,190,260,160,250,EQUAL,LEFT,30,40,25,True,True,False,True,False,False,DOWN,DOWN,1257,1256
190,260,180,260,160,250,UP,LEFT,40,30,25,True,True,False,True,False,False,DOWN,LEFT,1256,1255
190,260,180,260,160,250,UP,LEFT,40,30,25,True,True,False,True,False,False,LEFT,LEFT,1256,1255
180,260,170,260,160,250,UP,LEFT,30,20,25,False,True,True,True,False,False,LEFT,LEFT,1255,1254
180,260,170,260,160,250,UP,LEFT,30,20,25,False,True,True,True,False,False,LEFT,LEFT,1255,1254
170,260,160,260,160,250,UP,LEFT,20,10,25,False,True,True,True,False,False,LEFT,LEFT,1254,1253
170,260,160,260,160,250,UP,LEFT,20,10,25,False,True,True,True,False,False,LEFT,LEFT,1254,1253
160,260,150,260,160,250,UP,EQUAL,10,20,25,False,True,True,True,False,False,LEFT,LEFT,1253,1252
160,260,150,260,160,250,UP,EQUAL,10,20,25,False,True,True,True,False,False,LEFT,LEFT,1253,1252
150,260,150,250,160,250,UP,RIGHT,20,10,25,False,True,True,True,False,False,LEFT,UP,1252,1251
150,260,150,250,160,250,UP,RIGHT,20,10,25,False,True,True,True,False,False,UP,UP,1252,1251
150,250,150,240,160,250,EQUAL,RIGHT,10,20,25,True,True,True,False,False,False,UP,UP,1251,1250
150,250,150,240,160,250,EQUAL,RIGHT,10,20,25,True,True,True,False,False,False,UP,UP,1251,1250
150,240,150,230,160,250,DOWN,RIGHT,20,30,25,True,True,True,False,False,False,UP,UP,1250,1249
150,240,150,230,160,250,DOWN,RIGHT,20,30,25,True,True,True,False,False,False,UP,UP,1250,1249
150,230,150,220,160,250,DOWN,RIGHT,30,40,25,True,True,True,False,False,False,UP,UP,1249,1248
150,230,150,220,160,250,DOWN,RIGHT,30,40,25,True,True,True,False,False,False,UP,UP,1249,1248
150,220,150,210,160,250,DOWN,RIGHT,40,50,25,True,True,True,False,False,False,UP,UP,1248,1247
150,220,150,210,160,250,DOWN,RIGHT,40,50,25,True,True,True,False,False,False,UP,UP,1248,1247
150,210,150,200,160,250,DOWN,RIGHT,50,60,25,True,True,True,False,False,False,UP,UP,1247,1246
150,210,150,200,160,250,DOWN,RIGHT,50,60,25,True,True,True,False,False,False,UP,UP,1247,1246
150,200,150,190,160,250,DOWN,RIGHT,60,70,25,True,True,True,False,False,False,UP,UP,1246,1245
150,200,150,190,160,250,DOWN,RIGHT,60,70,25,True,True,True,False,False,False,UP,UP,1246,1245
150,190,150,180,160,250,DOWN,RIGHT,70,80,25,True,True,True,False,False,False,UP,UP,1245,1244
150,190,150,180,160,250,DOWN,RIGHT,70,80,25,True,True,True,False,False,False,UP,UP,1245,1244
150,180,150,170,160,250,DOWN,RIGHT,80,90,25,True,True,True,False,False,False,UP,UP,1244,1243
150,180,150,170,160,250,DOWN,RIGHT,80,90,25,True,True,True,False,False,False,UP,UP,1244,1243
150,170,150,160,160,250,DOWN,RIGHT,90,100,25,True,True,True,False,False,False,UP,UP,1243,1242
150,170,150,160,160,250,DOWN,RIGHT,90,100,25,True,True,True,False,False,False,UP,UP,1243,1242
150,160,150,150,160,250,DOWN,RIGHT,100,110,25,True,True,True,False,False,False,UP,UP,1242,1241
150,160,150,150,160,250,DOWN,RIGHT,100,110,25,True,True,True,False,False,False,UP,UP,1242,1241
150,150,150,140,160,250,DOWN,RIGHT,110,120,25,True,True,True,False,False,False,UP,UP,1241,1240
150,150,150,140,160,250,DOWN,RIGHT,110,120,25,True,True,True,False,False,False,UP,UP,1241,1240
150,140,150,130,160,250,DOWN,RIGHT,120,130,25,True,True,True,False,False,False,UP,UP,1240,1239
150,140,150,130,160,250,DOWN,RIGHT,120,130,25,True,True,True,False,False,False,UP,UP,1240,1239
150,130,150,120,160,250,DOWN,RIGHT,130,140,25,True,True,True,False,False,False,UP,UP,1239,1238
150,130,150,120,160,250,DOWN,RIGHT,130,140,25,True,True,True,False,False,False,UP,UP,1239,1238
150,120,160,120,160,250,DOWN,RIGHT,140,130,25,True,True,True,False,False,False,UP,RIGHT,1238,1237
150,120,160,120,160,250,DOWN,RIGHT,140,130,25,True,True,True,False,True,False,RIGHT,RIGHT,1238,1237
160,120,160,130,160,250,DOWN,EQUAL,130,120,25,True,False,True,True,True,True,RIGHT,DOWN,1237,1236
160,120,160,130,160,250,DOWN,EQUAL,130,120,25,True,False,True,True,True,True,DOWN,DOWN,1237,1236
160,130,160,140,160,250,DOWN,EQUAL,120,110,25,True,False,False,True,True,True,DOWN,DOWN,1236,1235
160,130,160,140,160,250,DOWN,EQUAL,120,110,25,True,False,False,True,True,True,DOWN,DOWN,1236,1235
160,140,160,150,160,250,DOWN,EQUAL,110,100,25,True,False,False,True,True,True,DOWN,DOWN,1235,1234
160,140,160,150,160,250,DOWN,EQUAL,110,100,25,True,False,False,True,True,True,DOWN,DOWN,1235,1234
160,150,160,160,160,250,DOWN,EQUAL,100,90,25,True,False,False,True,True,True,DOWN,DOWN,1234,1233
160,150,160,160,160,250,DOWN,EQUAL,100,90,25,True,False,False,True,True,True,DOWN,DOWN,1234,1233
160,160,160,170,160,250,DOWN,EQUAL,90,80,25,True,False,False,True,True,True,DOWN,DOWN,1233,1232
160,160,160,170,160,250,DOWN,EQUAL,90,80,25,True,False,False,True,True,True,DOWN,DOWN,1233,1232
160,170,160,180,160,250,DOWN,EQUAL,80,70,25,True,False,False,True,True,True,DOWN,DOWN,1232,1231
160,170,160,180,160,250,DOWN,EQUAL,80,70,25,True,False,False,True,True,True,DOWN,DOWN,1232,1231
160,180,160,190,160,250,DOWN,EQUAL,70,60,25,True,False,False,True,True,True,DOWN,DOWN,1231,1230
160,180,160,190,160,250,DOWN,EQUAL,70,60,25,True,False,False,True,True,True,DOWN,DOWN,1231,1230
160,190,160,200,160,250,DOWN,EQUAL,60,50,25,True,False,False,True,True,True,DOWN,DOWN,1230,1229
160,190,160,200,160,250,DOWN,EQUAL,60,50,25,True,False,False,True,True,True,DOWN,DOWN,1230,1229
160,200,160,210,160,250,DOWN,EQUAL,50,40,25,True,False,False,True,True,True,DOWN,DOWN,1229,1228
160,200,160,210,160,250,DOWN,EQUAL,50,40,25,True,False,False,True,True,True,DOWN,DOWN,1229,1228
160,210,160,220,160,250,DOWN,EQUAL,40,30,25,True,False,False,True,True,False,DOWN,DOWN,1228,1227
160,210,160,220,160,250,DOWN,EQUAL,40,30,25,True,False,False,True,True,False,DOWN,DOWN,1228,1227
160,220,160,230,160,250,DOWN,EQUAL,30,20,25,True,False,False,True,True,False,DOWN,DOWN,1227,1226
160,220,160,230,160,250,DOWN,EQUAL,30,20,25,True,False,False,True,True,False,DOWN,DOWN,1227,1226
160,230,160,240,160,250,DOWN,EQUAL,20,10,25,True,False,False,True,True,False,DOWN,DOWN,1226,1225
160,230,160,240,160,250,DOWN,EQUAL,20,10,25,True,False,False,True,True,False,DOWN,DOWN,1226,1225
160,240,160,250,160,250,DOWN,EQUAL,10,0,25,True,False,False,True,True,False,DOWN,DOWN,1225,1325
160,240,160,250,160,250,DOWN,EQUAL,10,0,25,True,False,False,True,True,False,DOWN,DOWN,1225,1325
160,250,160,260,150,190,EQUAL,EQUAL,70,80,26,True,True,False,True,True,False,DOWN,DOWN,1325,1324
160,250,160,260,150,190,EQUAL,EQUAL,70,80,26,True,True,False,True,True,False,DOWN,DOWN,1325,1324
160,260,160,270,150,190,UP,LEFT,80,90,26,True,True,False,True,True,False,DOWN,DOWN,1324,1323
160,260,160,270,150,190,UP,LEFT,80,90,26,True,True,False,True,True,False,DOWN,DOWN,1324,1323
160,270,160,280,150,190,UP,LEFT,90,100,26,True,True,False,True,True,False,DOWN,DOWN,1323,1322
160,270,160,280,150,190,UP,LEFT,90,100,26,True,True,False,True,True,False,DOWN,DOWN,1323,1322
160,280,160,290,150,190,UP,LEFT,100,110,26,True,True,False,True,True,False,DOWN,DOWN,1322,1321
160,280,160,290,150,190,UP,LEFT,100,110,26,True,True,False,True,True,False,DOWN,DOWN,1322,1321
160,290,160,300,150,190,UP,LEFT,110,120,26,True,True,False,True,True,False,DOWN,DOWN,1321,1320
160,290,160,300,150,190,UP,LEFT,110,120,26,True,True,False,True,True,False,DOWN,DOWN,1321,1320
160,300,160,310,150,190,UP,LEFT,120,130,26,True,True,False,True,True,False,DOWN,DOWN,1320,1319
160,300,160,310,150,190,UP,LEFT,120,130,26,True,True,False,True,True,False,DOWN,DOWN,1320,1319
160,310,150,310,150,190,UP,LEFT,130,120,26,True,True,False,True,True,False,DOWN,LEFT,1319,1318
160,310,150,310,150,190,UP,LEFT,130,120,26,True,True,False,True,True,False,LEFT,LEFT,1319,1318
150,310,150,300,150,190,UP,EQUAL,120,110,26,False,True,True,True,True,True,LEFT,UP,1318,1317
150,310,150,300,150,190,UP,EQUAL,120,110,26,False,True,True,True,True,True,UP,UP,1318,1317
150,300,150,290,150,190,UP,EQUAL,110,100,26,False,True,True,False,True,True,UP,UP,1317,1316
150,300,150,290,150,190,UP,EQUAL,110,100,26,False,True,True,False,True,True,UP,UP,1317,1316
150,290,150,280,150,190,UP,EQUAL,100,90,26,False,True,True,False,True,True,UP,UP,1316,1315
150,290,150,280,150,190,UP,EQUAL,100,90,26,False,True,True,False,True,True,UP,UP,1316,1315
150,280,150,270,150,190,UP,EQUAL,90,80,26,False,True,True,False,True,True,UP,UP,1315,1314
150,280,150,270,150,190,UP,EQUAL,90,80,26,False,True,True,False,True,True,UP,UP,1315,1314
150,270,150,260,150,190,UP,EQUAL,80,70,26,False,True,True,False,True,True,UP,UP,1314,1313
150,270,150,260,150,190,UP,EQUAL,80,70,26,False,True,True,False,True,True,UP,UP,1314,1313
150,260,150,250,150,190,UP,EQUAL,70,60,26,False,True,True,False,True,False,UP,UP,1313,1312
150,260,150,250,150,190,UP,EQUAL,70,60,26,False,True,True,False,True,False,UP,UP,1313,1312
150,250,150,240,150,190,UP,EQUAL,60,50,26,False,True,True,False,True,False,UP,UP,1312,1311
150,250,150,240,150,190,UP,EQUAL,60,50,26,False,True,True,False,True,False,UP,UP,1312,1311
150,240,150,230,150,190,UP,EQUAL,50,40,26,False,True,True,False,True,False,UP,UP,1311,1310
150,240,150,230,150,190,UP,EQUAL,50,40,26,False,True,True,False,True,False,UP,UP,1311,1310
150,230,150,220,150,190,UP,EQUAL,40,30,26,False,True,True,False,True,False,UP,UP,1310,1309
150,230,150,220,150,190,UP,EQUAL,40,30,26,False,True,True,False,True,False,UP,UP,1310,1309
150,220,150,210,150,190,UP,EQUAL,30,20,26,False,True,True,False,True,False,UP,UP,1309,1308
150,220,150,210,150,190,UP,EQUAL,30,20,26,False,True,True,False,True,False,UP,UP,1309,1308
150,210,150,200,150,190,UP,EQUAL,20,10,26,False,True,True,False,True,False,UP,UP,1308,1307
150,210,150,200,150,190,UP,EQUAL,20,10,26,False,True,True,False,True,False,UP,UP,1308,1307
150,200,150,190,150,190,UP,EQUAL,10,0,26,False,True,True,False,True,False,UP,UP,1307,1407
150,200,150,190,150,190,UP,EQUAL,10,0,26,False,True,True,False,True,False,UP,UP,1307,1407
150,190,150,180,120,140,EQUAL,EQUAL,80,70,27,False,True,True,False,True,False,UP,UP,1407,1406
150,190,150,180,120,140,EQUAL,EQUAL,80,70,27,False,True,True,False,True,False,UP,UP,1407,1406
150,180,150,170,120,140,UP,LEFT,70,60,27,False,True,True,False,True,False,UP,UP,1406,1405
150,180,150,170,120,140,UP,LEFT,70,60,27,False,True,True,False,True,False,UP,UP,1406,1405
150,170,150,160,120,140,UP,LEFT,60,50,27,True,True,True,False,True,False,UP,UP,1405,1404
150,170,150,160,120,140,UP,LEFT,60,50,27,True,True,True,False,True,False,UP,UP,1405,1404
150,160,150,150,120,140,UP,LEFT,50,40,27,True,True,True,False,True,False,UP,UP,1404,1403
150,160,150,150,120,140,UP,LEFT,50,40,27,True,True,True,False,True,False,UP,UP,1404,1403
150,150,150,140,120,140,UP,LEFT,40,30,27,True,True,True,False,True,False,UP,UP,1403,1402
150,150,150,140,120,140,UP,LEFT,40,30,27,True,True,True,False,True,False,UP,UP,1403,1402
150,140,140,140,120,140,EQUAL,LEFT,30,20,27,True,True,True,False,True,False,UP,LEFT,1402,1401
150,140,140,140,120,140,EQUAL,LEFT,30,20,27,True,True,True,False,False,False,LEFT,LEFT,1402,1401
140,140,130,140,120,140,EQUAL,LEFT,20,10,27,False,True,True,True,False,False,LEFT,LEFT,1401,1400
140,140,130,140,120,140,EQUAL,LEFT,20,10,27,False,True,True,True,False,False,LEFT,LEFT,1401,1400
130,140,120,140,120,140,EQUAL,LEFT,10,0,27,False,True,True,True,False,False,LEFT,LEFT,1400,1500
130,140,120,140,120,140,EQUAL,LEFT,10,0,27,False,True,True,True,False,False,LEFT,LEFT,1400,1500
120,140,110,140,470,420,EQUAL,EQUAL,630,640,28,False,True,True,True,False,False,LEFT,LEFT,1500,1499
120,140,110,140,470,420,EQUAL,EQUAL,630,640,28,False,True,True,True,False,False,LEFT,LEFT,1500,1499
110,140,100,140,470,420,DOWN,RIGHT,640,650,28,False,True,True,True,False,False,LEFT,LEFT,1499,1498
110,140,100,140,470,420,DOWN,RIGHT,640,650,28,False,True,True,True,False,False,LEFT,LEFT,1499,1498
100,140,90,140,470,420,DOWN,RIGHT,650,660,28,False,True,True,True,False,False,LEFT,LEFT,1498,1497
100,140,90,140,470,420,DOWN,RIGHT,650,660,28,False,True,True,True,False,False,LEFT,LEFT,1498,1497
90,140,80,140,470,420,DOWN,RIGHT,660,670,28,False,True,True,True,False,False,LEFT,LEFT,1497,1496
90,140,80,140,470,420,DOWN,RIGHT,660,670,28,False,True,True,True,False,False,LEFT,LEFT,1497,1496
80,140,70,140,470,420,DOWN,RIGHT,670,680,28,False,True,True,True,False,False,LEFT,LEFT,1496,1495
80,140,70,140,470,420,DOWN,RIGHT,670,680,28,False,True,True,True,False,False,LEFT,LEFT,1496,1495
70,140,70,150,470,420,DOWN,RIGHT,680,670,28,False,True,True,True,False,False,LEFT,DOWN,1495,1494
70,140,70,150,470,420,DOWN,RIGHT,680,670,28,False,True,True,True,False,False,DOWN,DOWN,1495,1494
70,150,70,160,470,420,DOWN,RIGHT,670,660,28,True,True,False,True,False,False,DOWN,DOWN,1494,1493
70,150,70,160,470,420,DOWN,RIGHT,670,660,28,True,True,False,True,False,False,DOWN,DOWN,1494,1493
70,160,70,170,470,420,DOWN,RIGHT,660,650,28,True,True,False,True,False,False,DOWN,DOWN,1493,1492
70,160,70,170,470,420,DOWN,RIGHT,660,650,28,True,True,False,True,False,False,DOWN,DOWN,1493,1492
70,170,70,180,470,420,DOWN,RIGHT,650,640,28,True,True,False,True,False,False,DOWN,DOWN,1492,1491
70,170,70,180,470,420,DOWN,RIGHT,650,640,28,True,True,False,True,False,False,DOWN,DOWN,1492,1491
70,180,70,190,470,420,DOWN,RIGHT,640,630,28,True,True,False,True,False,False,DOWN,DOWN,1491,1490
70,180,70,190,470,420,DOWN,RIGHT,640,630,28,True,True,False,True,False,False,DOWN,DOWN,1491,1490
70,190,70,200,470,420,DOWN,RIGHT,630,620,28,True,True,False,True,False,False,DOWN,DOWN,1490,1489
70,190,70,200,470,420,DOWN,RIGHT,630,620,28,True,True,False,True,False,False,DOWN,DOWN,1490,1489
70,200,70,210,470,420,DOWN,RIGHT,620,610,28,True,True,False,True,False,False,DOWN,DOWN,1489,1488
70,200,70,210,470,420,DOWN,RIGHT,620,610,28,True,True,False,True,False,False,DOWN,DOWN,1489,1488
70,210,70,220,470,420,DOWN,RIGHT,610,600,28,True,True,False,True,False,False,DOWN,DOWN,1488,1487
70,210,70,220,470,420,DOWN,RIGHT,610,600,28,True,True,False,True,False,False,DOWN,DOWN,1488,1487
70,220,70,230,470,420,DOWN,RIGHT,600,590,28,True,True,False,True,False,False,DOWN,DOWN,1487,1486
70,220,70,230,470,420,DOWN,RIGHT,600,590,28,True,True,False,True,False,False,DOWN,DOWN,1487,1486
70,230,70,240,470,420,DOWN,RIGHT,590,580,28,True,True,False,True,False,False,DOWN,DOWN,1486,1485
70,230,70,240,470,420,DOWN,RIGHT,590,580,28,True,True,False,True,False,False,DOWN,DOWN,1486,1485
70,240,70,250,470,420,DOWN,RIGHT,580,570,28,True,True,False,True,False,False,DOWN,DOWN,1485,1484
70,240,70,250,470,420,DOWN,RIGHT,580,570,28,True,True,False,True,False,False,DOWN,DOWN,1485,1484
70,250,70,260,470,420,DOWN,RIGHT,570,560,28,True,True,False,True,False,False,DOWN,DOWN,1484,1483
70,250,70,260,470,420,DOWN,RIGHT,570,560,28,True,True,False,True,False,False,DOWN,DOWN,1484,1483
70,260,70,270,470,420,DOWN,RIGHT,560,550,28,True,True,False,True,False,False,DOWN,DOWN,1483,1482
70,260,70,270,470,420,DOWN,RIGHT,560,550,28,True,True,False,True,False,False,DOWN,DOWN,1483,1482
70,270,70,280,470,420,DOWN,RIGHT,550,540,28,True,True,False,True,False,False,DOWN,DOWN,1482,1481
70,270,70,280,470,420,DOWN,RIGHT,550,540,28,True,True,False,True,False,False,DOWN,DOWN,1482,1481
70,280,70,290,470,420,DOWN,RIGHT,540,530,28,True,True,False,True,False,False,DOWN,DOWN,1481,1480
70,280,70,290,470,420,DOWN,RIGHT,540,530,28,True,True,False,True,False,False,DOWN,DOWN,1481,1480
70,290,70,300,470,420,DOWN,RIGHT,530,520,28,True,True,False,True,False,False,DOWN,DOWN,1480,1479
70,290,70,300,470,420,DOWN,RIGHT,530,520,28,True,True,False,True,False,False,DOWN,DOWN,1480,1479
70,300,70,310,470,420,DOWN,RIGHT,520,510,28,True,True,False,True,False,False,DOWN,DOWN,1479,1478
70,300,70,310,470,420,DOWN,RIGHT,520,510,28,True,True,False,True,False,False,DOWN,DOWN,1479,1478
70,310,70,320,470,420,DOWN,RIGHT,510,500,28,True,True,False,True,False,False,DOWN,DOWN,1478,1477
70,310,70,320,470,420,DOWN,RIGHT,510,500,28,True,True,False,True,False,False,DOWN,DOWN,1478,1477
70,320,70,330,470,420,DOWN,RIGHT,500,490,28,True,True,False,True,False,False,DOWN,DOWN,1477,1476
70,320,70,330,470,420,DOWN,RIGHT,500,490,28,True,True,False,True,False,False,DOWN,DOWN,1477,1476
70,330,70,340,470,420,DOWN,RIGHT,490,480,28,True,True,False,True,False,False,DOWN,DOWN,1476,1475
70,330,70,340,470,420,DOWN,RIGHT,490,480,28,True,True,False,True,False,False,DOWN,DOWN,1476,1475
70,340,70,350,470,420,DOWN,RIGHT,480,470,28,True,True,False,True,False,False,DOWN,DOWN,1475,1474
70,340,70,350,470,420,DOWN,RIGHT,480,470,28,True,True,False,True,False,False,DOWN,DOWN,1475,1474
70,350,70,360,470,420,DOWN,RIGHT,470,460,28,True,True,False,True,False,False,DOWN,DOWN,1474,1473
70,350,70,360,470,420,DOWN,RIGHT,470,460,28,True,True,False,True,False,False,DOWN,DOWN,1474,1473
70,360,70,370,470,420,DOWN,RIGHT,460,450,28,True,True,False,True,False,False,DOWN,DOWN,1473,1472
70,360,70,370,470,420,DOWN,RIGHT,460,450,28,True,True,False,True,False,False,DOWN,DOWN,1473,1472
70,370,70,380,470,420,DOWN,RIGHT,450,440,28,True,True,False,True,False,False,DOWN,DOWN,1472,1471
70,370,70,380,470,420,DOWN,RIGHT,450,440,28,True,True,False,True,False,False,DOWN,DOWN,1472,1471
70,380,70,390,470,420,DOWN,RIGHT,440,430,28,True,True,False,True,False,False,DOWN,DOWN,1471,1470
70,380,70,390,470,420,DOWN,RIGHT,440,430,28,True,True,False,True,False,False,DOWN,DOWN,1471,1470
70,390,70,400,470,420,DOWN,RIGHT,430,420,28,True,True,False,True,False,False,DOWN,DOWN,1470,1469
70,390,70,400,470,420,DOWN,RIGHT,430,420,28,True,True,False,True,False,False,DOWN,DOWN,1470,1469
70,400,80,400,470,420,DOWN,RIGHT,420,410,28,True,True,False,True,False,False,DOWN,RIGHT,1469,1468
70,400,80,400,470,420,DOWN,RIGHT,420,410,28,True,True,False,True,True,False,RIGHT,RIGHT,1469,1468
80,400,90,400,470,420,DOWN,RIGHT,410,400,28,True,False,True,True,True,False,RIGHT,RIGHT,1468,1467
80,400,90,400,470,420,DOWN,RIGHT,410,400,28,True,False,True,True,True,False,RIGHT,RIGHT,1468,1467
90,400,100,400,470,420,DOWN,RIGHT,400,390,28,True,False,True,True,True,False,RIGHT,RIGHT,1467,1466
90,400,100,400,470,420,DOWN,RIGHT,400,390,28,True,False,True,True,True,False,RIGHT,RIGHT,1467,1466
100,400,110,400,470,420,DOWN,RIGHT,390,380,28,True,False,True,True,True,False,RIGHT,RIGHT,1466,1465
100,400,110,400,470,420,DOWN,RIGHT,390,380,28,True,False,True,True,True,False,RIGHT,RIGHT,1466,1465
110,400,120,400,470,420,DOWN,RIGHT,380,370,28,True,False,True,True,True,False,RIGHT,RIGHT,1465,1464
110,400,120,400,470,420,DOWN,RIGHT,380,370,28,True,False,True,True,True,False,RIGHT,RIGHT,1465,1464
120,400,130,400,470,420,DOWN,RIGHT,370,360,28,True,False,True,True,True,False,RIGHT,RIGHT,1464,1463
120,400,130,400,470,420,DOWN,RIGHT,370,360,28,True,False,True,True,True,False,RIGHT,RIGHT,1464,1463
130,400,140,400,470,420,DOWN,RIGHT,360,350,28,True,False,True,True,True,False,RIGHT,RIGHT,1463,1462
130,400,140,400,470,420,DOWN,RIGHT,360,350,28,True,False,True,True,True,False,RIGHT,RIGHT,1463,1462
140,400,150,400,470,420,DOWN,RIGHT,350,340,28,True,False,True,True,True,False,RIGHT,RIGHT,1462,1461
140,400,150,400,470,420,DOWN,RIGHT,350,340,28,True,False,True,True,True,False,RIGHT,RIGHT,1462,1461
150,400,160,400,470,420,DOWN,RIGHT,340,330,28,True,False,True,True,True,False,RIGHT,RIGHT,1461,1460
150,400,160,400,470,420,DOWN,RIGHT,340,330,28,True,False,True,True,True,False,RIGHT,RIGHT,1461,1460
160,400,170,400,470,420,DOWN,RIGHT,330,320,28,True,False,True,True,True,False,RIGHT,RIGHT,1460,1459
160,400,170,400,470,420,DOWN,RIGHT,330,320,28,True,False,True,True,True,False,RIGHT,RIGHT,1460,1459
170,400,180,400,470,420,DOWN,RIGHT,320,310,28,True,False,True,True,True,False,RIGHT,RIGHT,1459,1458
170,400,180,400,470,420,DOWN,RIGHT,320,310,28,True,False,True,True,True,False,RIGHT,RIGHT,1459,1458
180,400,190,400,470,420,DOWN,RIGHT,310,300,28,True,False,True,True,True,False,RIGHT,RIGHT,1458,1457
180,400,190,400,470,420,DOWN,RIGHT,310,300,28,True,False,True,True,True,False,RIGHT,RIGHT,1458,1457
190,400,200,400,470,420,DOWN,RIGHT,300,290,28,True,False,True,True,True,False,RIGHT,RIGHT,1457,1456
190,400,200,400,470,420,DOWN,RIGHT,300,290,28,True,False,True,True,True,False,RIGHT,RIGHT,1457,1456
200,400,210,400,470,420,DOWN,RIGHT,290,280,28,True,False,True,True,True,False,RIGHT,RIGHT,1456,1455
200,400,210,400,470,420,DOWN,RIGHT,290,280,28,True,False,True,True,True,False,RIGHT,RIGHT,1456,1455
210,400,220,400,470,420,DOWN,RIGHT,280,270,28,True,False,True,True,True,False,RIGHT,RIGHT,1455,1454
210,400,220,400,470,420,DOWN,RIGHT,280,270,28,True,False,True,True,True,False,RIGHT,RIGHT,1455,1454
220,400,230,400,470,420,DOWN,RIGHT,270,260,28,True,False,True,True,True,False,RIGHT,RIGHT,1454,1453
220,400,230,400,470,420,DOWN,RIGHT,270,260,28,True,False,True,True,True,False,RIGHT,RIGHT,1454,1453
230,400,240,400,470,420,DOWN,RIGHT,260,250,28,True,False,True,True,True,False,RIGHT,RIGHT,1453,1452
230,400,240,400,470,420,DOWN,RIGHT,260,250,28,True,False,True,True,True,False,RIGHT,RIGHT,1453,1452
240,400,250,400,470,420,DOWN,RIGHT,250,240,28,True,False,True,True,True,False,RIGHT,RIGHT,1452,1451
240,400,250,400,470,420,DOWN,RIGHT,250,240,28,True,False,True,True,True,False,RIGHT,RIGHT,1452,1451
250,400,250,410,470,420,DOWN,RIGHT,240,230,28,True,False,True,True,True,False,RIGHT,DOWN,1451,1450
250,400,250,410,470,420,DOWN,RIGHT,240,230,28,True,False,True,True,False,False,DOWN,DOWN,1451,1450
250,410,260,410,470,420,DOWN,RIGHT,230,220,28,True,True,False,True,False,False,DOWN,RIGHT,1450,1449
250,410,260,410,470,420,DOWN,RIGHT,230,220,28,True,True,False,True,False,False,RIGHT,RIGHT,1450,1449
260,410,270,410,470,420,DOWN,RIGHT,220,210,28,True,False,True,True,False,False,RIGHT,RIGHT,1449,1448
260,410,270,410,470,420,DOWN,RIGHT,220,210,28,True,False,True,True,False,False,RIGHT,RIGHT,1449,1448
270,410,280,410,470,420,DOWN,RIGHT,210,200,28,True,False,True,True,False,False,RIGHT,RIGHT,1448,1447
270,410,280,410,470,420,DOWN,RIGHT,210,200,28,True,False,True,True,False,False,RIGHT,RIGHT,1448,1447
280,410,290,410,470,420,DOWN,RIGHT,200,190,28,True,False,True,True,False,False,RIGHT,RIGHT,1447,1446
280,410,290,410,470,420,DOWN,RIGHT,200,190,28,True,False,True,True,False,False,RIGHT,RIGHT,1447,1446
290,410,300,410,470,420,DOWN,RIGHT,190,180,28,True,False,True,True,False,False,RIGHT,RIGHT,1446,1445
290,410,300,410,470,420,DOWN,RIGHT,190,180,28,True,False,True,True,False,False,RIGHT,RIGHT,1446,1445
300,410,310,410,470,420,DOWN,RIGHT,180,170,28,True,False,True,True,False,False,RIGHT,RIGHT,1445,1444
300,410,310,410,470,420,DOWN,RIGHT,180,170,28,True,False,True,True,False,False,RIGHT,RIGHT,1445,1444
310,410,320,410,470,420,DOWN,RIGHT,170,160,28,True,False,True,True,False,False,RIGHT,RIGHT,1444,1443
310,410,320,410,470,420,DOWN,RIGHT,170,160,28,True,False,True,True,False,False,RIGHT,RIGHT,1444,1443
320,410,330,410,470,420,DOWN,RIGHT,160,150,28,True,False,True,True,False,False,RIGHT,RIGHT,1443,1442
320,410,330,410,470,420,DOWN,RIGHT,160,150,28,True,False,True,True,False,False,RIGHT,RIGHT,1443,1442
330,410,340,410,470,420,DOWN,RIGHT,150,140,28,True,False,True,True,False,False,RIGHT,RIGHT,1442,1441
330,410,340,410,470,420,DOWN,RIGHT,150,140,28,True,False,True,True,False,False,RIGHT,RIGHT,1442,1441
340,410,350,410,470,420,DOWN,RIGHT,140,130,28,True,False,True,True,False,False,RIGHT,RIGHT,1441,1440
340,410,350,410,470,420,DOWN,RIGHT,140,130,28,True,False,True,True,False,False,RIGHT,RIGHT,1441,1440
350,410,360,410,470,420,DOWN,RIGHT,130,120,28,True,False,True,True,False,False,RIGHT,RIGHT,1440,1439
350,410,360,410,470,420,DOWN,RIGHT,130,120,28,True,False,True,True,False,False,RIGHT,RIGHT,1440,1439
360,410,370,410,470,420,DOWN,RIGHT,120,110,28,True,False,True,True,False,False,RIGHT,RIGHT,1439,1438
360,410,370,410,470,420,DOWN,RIGHT,120,110,28,True,False,True,True,False,False,RIGHT,RIGHT,1439,1438
370,410,380,410,470,420,DOWN,RIGHT,110,100,28,True,False,True,True,False,False,RIGHT,RIGHT,1438,1437
370,410,380,410,470,420,DOWN,RIGHT,110,100,28,True,False,True,True,False,False,RIGHT,RIGHT,1438,1437
380,410,390,410,470,420,DOWN,RIGHT,100,90,28,True,False,True,True,False,False,RIGHT,RIGHT,1437,1436
380,410,390,410,470,420,DOWN,RIGHT,100,90,28,True,False,True,True,False,False,RIGHT,RIGHT,1437,1436
390,410,400,410,470,420,DOWN,RIGHT,90,80,28,True,False,True,True,False,False,RIGHT,RIGHT,1436,1435
390,410,400,410,470,420,DOWN,RIGHT,90,80,28,True,False,True,True,False,False,RIGHT,RIGHT,1436,1435
400,410,410,410,470,420,DOWN,RIGHT,80,70,28,True,False,True,True,False,False,RIGHT,RIGHT,1435,1434
400,410,410,410,470,420,DOWN,RIGHT,80,70,28,True,False,True,True,False,False,RIGHT,RIGHT,1435,1434
410,410,410,420,470,420,DOWN,RIGHT,70,60,28,True,False,True,True,False,False,RIGHT,DOWN,1434,1433
410,410,410,420,470,420,DOWN,RIGHT,70,60,28,True,False,True,True,False,False,DOWN,DOWN,1434,1433
410,420,420,420,470,420,EQUAL,RIGHT,60,50,28,True,True,False,True,False,False,DOWN,RIGHT,1433,1432
410,420,420,420,470,420,EQUAL,RIGHT,60,50,28,True,True,False,True,False,False,RIGHT,RIGHT,1433,1432
420,420,430,420,470,420,EQUAL,RIGHT,50,40,28,True,False,True,True,False,False,RIGHT,RIGHT,1432,1431
420,420,430,420,470,420,EQUAL,RIGHT,50,40,28,True,False,True,True,False,False,RIGHT,RIGHT,1432,1431
430,420,440,420,470,420,EQUAL,RIGHT,40,30,28,True,False,True,True,False,False,RIGHT,RIGHT,1431,1430
430,420,440,420,470,420,EQUAL,RIGHT,40,30,28,True,False,True,True,False,False,RIGHT,RIGHT,1431,1430
440,420,450,420,470,420,EQUAL,RIGHT,30,20,28,True,False,True,True,False,False,RIGHT,RIGHT,1430,1429
440,420,450,420,470,420,EQUAL,RIGHT,30,20,28,True,False,True,True,False,False,RIGHT,RIGHT,1430,1429
450,420,460,420,470,420,EQUAL,RIGHT,20,10,28,True,False,True,True,False,False,RIGHT,RIGHT,1429,1428
450,420,460,420,470,420,EQUAL,RIGHT,20,10,28,True,False,True,True,False,False,RIGHT,RIGHT,1429,1428
460,420,470,420,470,420,EQUAL,RIGHT,10,0,28,True,False,True,True,False,False,RIGHT,RIGHT,1428,0
460,420,470,420,470,420,EQUAL,RIGHT,10,0,28,True,False,True,True,False,False,RIGHT,RIGHT,1428,0
470,420,480,420,210,420,EQUAL,EQUAL,260,270,29,False,False,True,True,False,False,RIGHT,RIGHT,1528,0
470,420,480,420,210,420,EQUAL,EQUAL,260,270,29,False,False,True,True,False,False,RIGHT,RIGHT,1528,0
