@relation 'snake_game-weka.filters.unsupervised.instance.Randomize-S42-weka.filters.unsupervised.attribute.Discretize-B10-M-1.0-Rfirst-last-precision6-weka.filters.unsupervised.instance.RemovePercentage-P20.0-weka.filters.unsupervised.attribute.Remove-R3-4,10,16-17-weka.filters.unsupervised.attribute.Remove-R1-2,7-8,13-14'

@attribute food_pos_x {'\'(-inf-55]\'','\'(55-100]\'','\'(100-145]\'','\'(145-190]\'','\'(190-235]\'','\'(235-280]\'','\'(280-325]\'','\'(325-370]\'','\'(370-415]\'','\'(415-inf)\''}
@attribute food_pos_y {'\'(-inf-55]\'','\'(55-100]\'','\'(100-145]\'','\'(145-190]\'','\'(190-235]\'','\'(235-280]\'','\'(280-325]\'','\'(325-370]\'','\'(370-415]\'','\'(415-inf)\''}
@attribute food_side_y {UP,DOWN,EQUAL}
@attribute food_side_x {RIGHT,LEFT,EQUAL}
@attribute right_safe {True,False}
@attribute left_safe {True,False}
@attribute up_safe {True,False}
@attribute down_safe {True,False}
@attribute previous_direction {UP,DOWN,LEFT,RIGHT}
@attribute direction {UP,DOWN,LEFT,RIGHT}

@data
'\'(100-145]\'','\'(-inf-55]\'',UP,LEFT,True,True,True,False,UP,UP
'\'(370-415]\'','\'(55-100]\'',UP,RIGHT,True,True,True,False,UP,UP
'\'(235-280]\'','\'(370-415]\'',UP,EQUAL,True,True,True,False,UP,UP
'\'(280-325]\'','\'(100-145]\'',UP,RIGHT,True,False,True,True,RIGHT,RIGHT
'\'(370-415]\'','\'(-inf-55]\'',UP,RIGHT,True,True,True,False,UP,UP
'\'(100-145]\'','\'(55-100]\'',UP,RIGHT,True,True,True,False,UP,UP
'\'(415-inf)\'','\'(235-280]\'',DOWN,RIGHT,True,True,False,True,DOWN,DOWN
'\'(55-100]\'','\'(-inf-55]\'',UP,LEFT,False,True,True,True,LEFT,LEFT
'\'(370-415]\'','\'(190-235]\'',UP,EQUAL,True,True,True,False,UP,UP
'\'(145-190]\'','\'(55-100]\'',EQUAL,RIGHT,True,False,True,True,RIGHT,RIGHT
'\'(235-280]\'','\'(145-190]\'',DOWN,RIGHT,True,True,True,False,UP,UP
'\'(-inf-55]\'','\'(370-415]\'',DOWN,LEFT,True,True,True,False,UP,UP
'\'(370-415]\'','\'(-inf-55]\'',UP,RIGHT,True,True,True,False,UP,UP
'\'(370-415]\'','\'(145-190]\'',EQUAL,LEFT,True,True,False,True,DOWN,DOWN
'\'(370-415]\'','\'(-inf-55]\'',UP,RIGHT,True,True,True,False,UP,UP
'\'(190-235]\'','\'(415-inf)\'',DOWN,RIGHT,True,True,True,False,UP,UP
'\'(-inf-55]\'','\'(370-415]\'',DOWN,LEFT,False,True,True,True,LEFT,LEFT
'\'(145-190]\'','\'(55-100]\'',DOWN,RIGHT,False,True,True,True,LEFT,DOWN
'\'(235-280]\'','\'(370-415]\'',UP,RIGHT,True,False,True,True,RIGHT,RIGHT
'\'(415-inf)\'','\'(-inf-55]\'',UP,RIGHT,True,False,True,True,RIGHT,RIGHT
'\'(100-145]\'','\'(55-100]\'',UP,EQUAL,True,True,True,False,UP,UP
'\'(370-415]\'','\'(235-280]\'',UP,RIGHT,True,True,True,False,UP,RIGHT
'\'(325-370]\'','\'(190-235]\'',UP,LEFT,True,False,True,True,RIGHT,RIGHT
'\'(280-325]\'','\'(-inf-55]\'',UP,RIGHT,True,False,True,True,RIGHT,RIGHT
'\'(235-280]\'','\'(145-190]\'',UP,RIGHT,False,True,True,True,LEFT,LEFT
'\'(415-inf)\'','\'(325-370]\'',DOWN,RIGHT,True,False,True,True,RIGHT,RIGHT
'\'(190-235]\'','\'(325-370]\'',UP,RIGHT,True,False,True,True,RIGHT,RIGHT
'\'(100-145]\'','\'(55-100]\'',UP,LEFT,True,True,False,True,DOWN,DOWN
'\'(280-325]\'','\'(100-145]\'',UP,LEFT,True,True,True,False,UP,LEFT
'\'(55-100]\'','\'(145-190]\'',DOWN,EQUAL,True,True,False,True,DOWN,DOWN
'\'(325-370]\'','\'(415-inf)\'',DOWN,LEFT,True,True,False,True,DOWN,DOWN
'\'(-inf-55]\'','\'(325-370]\'',DOWN,LEFT,True,True,False,True,DOWN,DOWN
'\'(-inf-55]\'','\'(415-inf)\'',DOWN,LEFT,False,True,True,True,LEFT,LEFT
'\'(415-inf)\'','\'(-inf-55]\'',DOWN,RIGHT,True,False,False,True,RIGHT,RIGHT
'\'(235-280]\'','\'(145-190]\'',UP,LEFT,True,True,False,True,DOWN,LEFT
'\'(370-415]\'','\'(55-100]\'',DOWN,RIGHT,True,False,True,True,RIGHT,RIGHT
'\'(100-145]\'','\'(55-100]\'',UP,LEFT,False,True,True,True,LEFT,LEFT
'\'(370-415]\'','\'(-inf-55]\'',EQUAL,RIGHT,True,True,True,False,UP,UP
'\'(145-190]\'','\'(325-370]\'',DOWN,EQUAL,True,True,False,True,DOWN,DOWN
'\'(280-325]\'','\'(100-145]\'',DOWN,RIGHT,True,True,True,False,UP,RIGHT
'\'(370-415]\'','\'(145-190]\'',UP,LEFT,True,True,False,True,DOWN,DOWN
'\'(415-inf)\'','\'(-inf-55]\'',UP,RIGHT,True,False,True,True,RIGHT,RIGHT
'\'(-inf-55]\'','\'(370-415]\'',DOWN,RIGHT,True,True,False,True,DOWN,DOWN
'\'(235-280]\'','\'(190-235]\'',UP,LEFT,False,True,True,True,LEFT,LEFT
'\'(235-280]\'','\'(190-235]\'',UP,EQUAL,True,True,True,False,UP,UP
'\'(415-inf)\'','\'(235-280]\'',DOWN,RIGHT,True,False,True,True,RIGHT,RIGHT
'\'(100-145]\'','\'(-inf-55]\'',UP,LEFT,True,True,True,False,UP,UP
'\'(-inf-55]\'','\'(325-370]\'',EQUAL,LEFT,False,True,True,True,LEFT,LEFT
'\'(55-100]\'','\'(-inf-55]\'',UP,LEFT,False,True,True,True,LEFT,LEFT
'\'(235-280]\'','\'(145-190]\'',UP,RIGHT,True,True,False,True,DOWN,RIGHT
'\'(-inf-55]\'','\'(235-280]\'',DOWN,LEFT,True,True,False,True,DOWN,DOWN
'\'(145-190]\'','\'(325-370]\'',DOWN,EQUAL,True,True,False,True,DOWN,DOWN
'\'(370-415]\'','\'(235-280]\'',UP,RIGHT,False,True,True,True,LEFT,LEFT
'\'(415-inf)\'','\'(415-inf)\'',DOWN,RIGHT,True,True,False,True,DOWN,DOWN
'\'(190-235]\'','\'(55-100]\'',EQUAL,RIGHT,True,True,False,True,DOWN,RIGHT
'\'(-inf-55]\'','\'(235-280]\'',UP,LEFT,False,True,True,True,LEFT,LEFT
'\'(55-100]\'','\'(-inf-55]\'',UP,RIGHT,True,True,True,False,UP,UP
'\'(370-415]\'','\'(235-280]\'',UP,LEFT,True,True,False,True,DOWN,DOWN
'\'(325-370]\'','\'(325-370]\'',EQUAL,EQUAL,True,True,False,True,DOWN,DOWN
'\'(370-415]\'','\'(55-100]\'',DOWN,EQUAL,True,True,False,True,DOWN,DOWN
'\'(55-100]\'','\'(-inf-55]\'',UP,LEFT,True,True,False,True,DOWN,DOWN
'\'(415-inf)\'','\'(280-325]\'',DOWN,RIGHT,True,False,True,True,RIGHT,RIGHT
'\'(190-235]\'','\'(325-370]\'',UP,RIGHT,True,False,True,True,RIGHT,RIGHT
'\'(145-190]\'','\'(235-280]\'',EQUAL,LEFT,False,True,True,True,LEFT,LEFT
'\'(55-100]\'','\'(145-190]\'',DOWN,LEFT,False,True,True,True,LEFT,LEFT
'\'(55-100]\'','\'(325-370]\'',EQUAL,LEFT,False,True,True,True,LEFT,LEFT
'\'(415-inf)\'','\'(145-190]\'',UP,RIGHT,True,False,True,True,RIGHT,RIGHT
'\'(325-370]\'','\'(190-235]\'',DOWN,LEFT,True,True,True,False,UP,UP
'\'(415-inf)\'','\'(145-190]\'',UP,RIGHT,True,False,True,True,RIGHT,RIGHT
'\'(-inf-55]\'','\'(235-280]\'',DOWN,LEFT,True,True,True,False,UP,LEFT
'\'(55-100]\'','\'(-inf-55]\'',UP,RIGHT,True,True,True,False,UP,UP
'\'(145-190]\'','\'(55-100]\'',UP,RIGHT,True,True,False,True,DOWN,DOWN
'\'(415-inf)\'','\'(415-inf)\'',DOWN,RIGHT,True,False,True,True,RIGHT,DOWN
'\'(235-280]\'','\'(415-inf)\'',EQUAL,LEFT,False,True,True,True,LEFT,LEFT
'\'(-inf-55]\'','\'(325-370]\'',EQUAL,LEFT,False,True,True,True,LEFT,LEFT
'\'(415-inf)\'','\'(415-inf)\'',DOWN,RIGHT,True,False,True,True,RIGHT,RIGHT
'\'(415-inf)\'','\'(325-370]\'',DOWN,RIGHT,True,False,True,True,RIGHT,RIGHT
'\'(280-325]\'','\'(100-145]\'',DOWN,EQUAL,True,False,False,True,DOWN,DOWN
'\'(-inf-55]\'','\'(100-145]\'',EQUAL,LEFT,True,True,False,True,DOWN,DOWN
'\'(-inf-55]\'','\'(415-inf)\'',DOWN,LEFT,False,True,True,True,LEFT,LEFT
'\'(190-235]\'','\'(415-inf)\'',UP,EQUAL,False,True,True,True,LEFT,LEFT
'\'(415-inf)\'','\'(145-190]\'',UP,RIGHT,True,False,True,True,RIGHT,RIGHT
'\'(235-280]\'','\'(145-190]\'',EQUAL,RIGHT,True,False,True,True,RIGHT,RIGHT
'\'(280-325]\'','\'(-inf-55]\'',UP,RIGHT,True,False,True,True,RIGHT,RIGHT
'\'(-inf-55]\'','\'(370-415]\'',DOWN,LEFT,False,True,True,True,LEFT,LEFT
'\'(-inf-55]\'','\'(415-inf)\'',DOWN,LEFT,False,True,True,True,LEFT,LEFT
'\'(145-190]\'','\'(235-280]\'',EQUAL,LEFT,False,True,True,True,LEFT,LEFT
'\'(235-280]\'','\'(100-145]\'',DOWN,RIGHT,True,False,True,True,RIGHT,RIGHT
'\'(-inf-55]\'','\'(235-280]\'',DOWN,LEFT,False,True,True,True,LEFT,DOWN
'\'(370-415]\'','\'(145-190]\'',EQUAL,EQUAL,True,False,False,True,DOWN,DOWN
'\'(100-145]\'','\'(415-inf)\'',DOWN,RIGHT,True,True,False,True,DOWN,RIGHT
'\'(415-inf)\'','\'(145-190]\'',UP,RIGHT,True,False,True,True,RIGHT,RIGHT
'\'(235-280]\'','\'(145-190]\'',UP,RIGHT,True,True,True,False,UP,UP
'\'(145-190]\'','\'(235-280]\'',EQUAL,LEFT,True,True,True,False,UP,LEFT
'\'(-inf-55]\'','\'(190-235]\'',EQUAL,LEFT,False,True,True,True,LEFT,LEFT
'\'(235-280]\'','\'(370-415]\'',UP,RIGHT,True,False,True,True,RIGHT,RIGHT
'\'(-inf-55]\'','\'(415-inf)\'',DOWN,EQUAL,True,True,False,True,DOWN,DOWN
'\'(370-415]\'','\'(55-100]\'',UP,RIGHT,True,True,True,False,UP,UP
'\'(190-235]\'','\'(55-100]\'',EQUAL,RIGHT,True,False,True,True,RIGHT,RIGHT
'\'(-inf-55]\'','\'(370-415]\'',DOWN,LEFT,True,True,True,False,UP,UP
'\'(235-280]\'','\'(145-190]\'',EQUAL,RIGHT,True,True,False,False,DOWN,RIGHT
'\'(100-145]\'','\'(55-100]\'',UP,EQUAL,True,True,True,False,UP,UP
'\'(-inf-55]\'','\'(190-235]\'',UP,LEFT,True,False,True,True,RIGHT,RIGHT
'\'(100-145]\'','\'(55-100]\'',EQUAL,EQUAL,True,False,True,True,RIGHT,RIGHT
'\'(145-190]\'','\'(235-280]\'',EQUAL,LEFT,False,True,True,True,LEFT,LEFT
'\'(100-145]\'','\'(-inf-55]\'',UP,RIGHT,True,True,False,True,DOWN,DOWN
'\'(-inf-55]\'','\'(415-inf)\'',DOWN,LEFT,True,True,False,True,DOWN,DOWN
'\'(145-190]\'','\'(235-280]\'',EQUAL,LEFT,False,True,True,True,LEFT,LEFT
'\'(235-280]\'','\'(145-190]\'',DOWN,RIGHT,True,False,True,True,RIGHT,RIGHT
'\'(-inf-55]\'','\'(100-145]\'',DOWN,LEFT,False,True,True,True,LEFT,LEFT
'\'(100-145]\'','\'(-inf-55]\'',DOWN,LEFT,False,True,False,True,LEFT,LEFT
'\'(100-145]\'','\'(55-100]\'',UP,RIGHT,True,True,True,False,UP,UP
'\'(55-100]\'','\'(-inf-55]\'',UP,LEFT,True,True,True,False,UP,UP
'\'(370-415]\'','\'(-inf-55]\'',UP,RIGHT,True,False,True,True,RIGHT,RIGHT
'\'(325-370]\'','\'(190-235]\'',DOWN,EQUAL,False,True,True,True,LEFT,LEFT
'\'(235-280]\'','\'(145-190]\'',DOWN,RIGHT,True,False,True,True,RIGHT,RIGHT
'\'(-inf-55]\'','\'(370-415]\'',DOWN,LEFT,False,True,True,True,LEFT,LEFT
'\'(-inf-55]\'','\'(235-280]\'',DOWN,LEFT,False,True,True,True,LEFT,LEFT
'\'(55-100]\'','\'(370-415]\'',DOWN,LEFT,True,True,False,True,DOWN,LEFT
'\'(370-415]\'','\'(55-100]\'',DOWN,RIGHT,True,False,True,True,RIGHT,RIGHT
'\'(280-325]\'','\'(-inf-55]\'',UP,RIGHT,True,False,True,True,RIGHT,RIGHT
'\'(-inf-55]\'','\'(235-280]\'',DOWN,LEFT,False,True,True,True,LEFT,LEFT
'\'(145-190]\'','\'(415-inf)\'',DOWN,RIGHT,True,True,False,True,DOWN,DOWN
'\'(325-370]\'','\'(190-235]\'',UP,LEFT,True,False,True,True,RIGHT,RIGHT
'\'(415-inf)\'','\'(-inf-55]\'',UP,RIGHT,True,True,True,False,UP,UP
'\'(-inf-55]\'','\'(415-inf)\'',DOWN,LEFT,False,True,True,True,LEFT,LEFT
'\'(145-190]\'','\'(325-370]\'',DOWN,EQUAL,True,True,False,True,DOWN,DOWN
'\'(415-inf)\'','\'(235-280]\'',DOWN,RIGHT,True,False,True,True,RIGHT,RIGHT
'\'(-inf-55]\'','\'(370-415]\'',DOWN,LEFT,False,True,True,True,LEFT,LEFT
'\'(55-100]\'','\'(325-370]\'',EQUAL,LEFT,False,True,True,True,LEFT,LEFT
'\'(145-190]\'','\'(415-inf)\'',DOWN,EQUAL,True,True,False,True,DOWN,DOWN
'\'(-inf-55]\'','\'(370-415]\'',DOWN,EQUAL,False,True,True,True,LEFT,DOWN
'\'(-inf-55]\'','\'(235-280]\'',EQUAL,EQUAL,True,True,True,False,UP,UP
'\'(280-325]\'','\'(-inf-55]\'',UP,RIGHT,True,True,True,False,UP,RIGHT
'\'(-inf-55]\'','\'(415-inf)\'',DOWN,EQUAL,True,True,False,True,DOWN,DOWN
'\'(325-370]\'','\'(280-325]\'',DOWN,LEFT,True,True,False,True,DOWN,DOWN
'\'(55-100]\'','\'(-inf-55]\'',UP,LEFT,False,True,True,True,LEFT,LEFT
'\'(325-370]\'','\'(190-235]\'',DOWN,LEFT,False,True,True,True,LEFT,LEFT
'\'(370-415]\'','\'(190-235]\'',UP,EQUAL,True,True,True,False,UP,UP
'\'(-inf-55]\'','\'(235-280]\'',UP,LEFT,False,True,True,True,LEFT,LEFT
'\'(145-190]\'','\'(145-190]\'',DOWN,RIGHT,True,True,False,True,DOWN,DOWN
'\'(55-100]\'','\'(145-190]\'',DOWN,EQUAL,True,True,False,True,DOWN,DOWN
'\'(235-280]\'','\'(190-235]\'',UP,LEFT,False,True,True,True,LEFT,LEFT
'\'(55-100]\'','\'(-inf-55]\'',UP,LEFT,False,True,True,True,LEFT,UP
'\'(100-145]\'','\'(-inf-55]\'',DOWN,LEFT,False,True,True,True,LEFT,LEFT
'\'(325-370]\'','\'(415-inf)\'',DOWN,LEFT,False,True,True,True,LEFT,LEFT
'\'(-inf-55]\'','\'(415-inf)\'',DOWN,LEFT,True,True,False,True,DOWN,DOWN
'\'(325-370]\'','\'(325-370]\'',DOWN,EQUAL,True,True,False,True,DOWN,DOWN
'\'(55-100]\'','\'(-inf-55]\'',UP,LEFT,False,True,True,True,LEFT,LEFT
'\'(235-280]\'','\'(145-190]\'',DOWN,RIGHT,True,True,False,True,DOWN,DOWN
'\'(100-145]\'','\'(55-100]\'',UP,EQUAL,True,True,True,False,UP,UP
'\'(280-325]\'','\'(235-280]\'',UP,EQUAL,True,True,True,False,UP,UP
'\'(-inf-55]\'','\'(190-235]\'',UP,LEFT,True,False,True,True,RIGHT,RIGHT
'\'(370-415]\'','\'(-inf-55]\'',UP,RIGHT,True,False,True,True,RIGHT,RIGHT
'\'(145-190]\'','\'(235-280]\'',EQUAL,LEFT,False,True,True,True,LEFT,LEFT
'\'(415-inf)\'','\'(-inf-55]\'',DOWN,RIGHT,True,False,False,True,RIGHT,RIGHT
'\'(325-370]\'','\'(190-235]\'',DOWN,EQUAL,True,True,False,True,DOWN,DOWN
'\'(145-190]\'','\'(235-280]\'',DOWN,LEFT,True,True,False,True,DOWN,DOWN
'\'(415-inf)\'','\'(415-inf)\'',DOWN,RIGHT,True,False,True,True,RIGHT,RIGHT
'\'(280-325]\'','\'(-inf-55]\'',UP,RIGHT,True,False,True,False,UP,UP
'\'(235-280]\'','\'(370-415]\'',UP,RIGHT,True,False,True,True,RIGHT,RIGHT
'\'(55-100]\'','\'(370-415]\'',DOWN,RIGHT,True,True,True,False,UP,UP
'\'(-inf-55]\'','\'(100-145]\'',UP,LEFT,True,True,False,True,DOWN,DOWN
'\'(325-370]\'','\'(415-inf)\'',DOWN,RIGHT,False,True,True,True,LEFT,LEFT
'\'(370-415]\'','\'(55-100]\'',DOWN,RIGHT,True,False,True,True,RIGHT,RIGHT
'\'(-inf-55]\'','\'(190-235]\'',UP,LEFT,True,True,True,False,UP,UP
'\'(325-370]\'','\'(280-325]\'',DOWN,LEFT,True,True,False,True,DOWN,DOWN
'\'(280-325]\'','\'(235-280]\'',UP,RIGHT,True,False,True,False,RIGHT,RIGHT
'\'(325-370]\'','\'(190-235]\'',DOWN,EQUAL,True,True,False,True,DOWN,DOWN
'\'(235-280]\'','\'(100-145]\'',DOWN,LEFT,True,False,True,True,RIGHT,DOWN
'\'(415-inf)\'','\'(280-325]\'',DOWN,RIGHT,True,True,False,True,DOWN,DOWN
'\'(100-145]\'','\'(-inf-55]\'',UP,EQUAL,True,True,True,False,UP,UP
'\'(-inf-55]\'','\'(415-inf)\'',DOWN,LEFT,True,True,False,True,DOWN,DOWN
'\'(415-inf)\'','\'(235-280]\'',DOWN,EQUAL,True,True,False,True,DOWN,DOWN
'\'(145-190]\'','\'(145-190]\'',DOWN,LEFT,False,True,True,True,LEFT,LEFT
'\'(100-145]\'','\'(55-100]\'',UP,RIGHT,True,False,True,True,RIGHT,RIGHT
'\'(-inf-55]\'','\'(415-inf)\'',DOWN,LEFT,True,True,False,True,DOWN,DOWN
'\'(415-inf)\'','\'(280-325]\'',DOWN,RIGHT,True,False,True,True,RIGHT,RIGHT
'\'(415-inf)\'','\'(235-280]\'',DOWN,RIGHT,True,False,True,True,RIGHT,RIGHT
'\'(55-100]\'','\'(-inf-55]\'',UP,LEFT,False,True,True,True,LEFT,LEFT
'\'(-inf-55]\'','\'(235-280]\'',DOWN,LEFT,False,True,True,True,LEFT,LEFT
'\'(-inf-55]\'','\'(190-235]\'',UP,LEFT,True,True,True,False,UP,UP
'\'(325-370]\'','\'(190-235]\'',DOWN,LEFT,True,True,True,False,UP,UP
'\'(-inf-55]\'','\'(415-inf)\'',DOWN,LEFT,True,True,False,True,DOWN,DOWN
'\'(415-inf)\'','\'(280-325]\'',DOWN,RIGHT,True,False,True,True,RIGHT,RIGHT
'\'(100-145]\'','\'(415-inf)\'',DOWN,RIGHT,False,True,True,True,LEFT,DOWN
'\'(100-145]\'','\'(55-100]\'',UP,EQUAL,True,True,True,False,UP,UP
'\'(-inf-55]\'','\'(370-415]\'',DOWN,LEFT,False,True,True,True,LEFT,LEFT
'\'(55-100]\'','\'(-inf-55]\'',EQUAL,EQUAL,True,True,False,True,DOWN,DOWN
'\'(55-100]\'','\'(-inf-55]\'',UP,LEFT,True,True,True,False,UP,UP
'\'(325-370]\'','\'(415-inf)\'',DOWN,LEFT,True,True,False,True,DOWN,DOWN
'\'(235-280]\'','\'(145-190]\'',DOWN,RIGHT,True,False,True,True,RIGHT,RIGHT
'\'(-inf-55]\'','\'(100-145]\'',DOWN,LEFT,False,True,True,True,LEFT,LEFT
'\'(55-100]\'','\'(325-370]\'',EQUAL,LEFT,False,True,True,True,LEFT,LEFT
'\'(325-370]\'','\'(190-235]\'',DOWN,EQUAL,True,True,False,True,DOWN,DOWN
'\'(370-415]\'','\'(190-235]\'',UP,EQUAL,True,True,True,False,UP,UP
'\'(370-415]\'','\'(-inf-55]\'',UP,RIGHT,True,False,True,True,RIGHT,RIGHT
'\'(145-190]\'','\'(235-280]\'',DOWN,LEFT,True,True,False,True,DOWN,DOWN
'\'(370-415]\'','\'(-inf-55]\'',UP,RIGHT,True,False,True,True,RIGHT,RIGHT
'\'(145-190]\'','\'(235-280]\'',EQUAL,LEFT,False,True,True,True,LEFT,LEFT
'\'(55-100]\'','\'(145-190]\'',DOWN,LEFT,False,True,True,True,LEFT,LEFT
'\'(280-325]\'','\'(235-280]\'',UP,EQUAL,True,True,True,False,UP,UP
'\'(-inf-55]\'','\'(370-415]\'',DOWN,LEFT,False,True,True,True,LEFT,LEFT
'\'(370-415]\'','\'(-inf-55]\'',DOWN,RIGHT,True,True,True,False,UP,RIGHT
'\'(415-inf)\'','\'(280-325]\'',DOWN,RIGHT,True,False,True,True,RIGHT,RIGHT
'\'(-inf-55]\'','\'(235-280]\'',DOWN,LEFT,True,True,False,True,DOWN,DOWN
'\'(280-325]\'','\'(-inf-55]\'',UP,RIGHT,True,False,True,True,RIGHT,RIGHT
'\'(235-280]\'','\'(145-190]\'',UP,RIGHT,True,False,True,True,RIGHT,RIGHT
'\'(235-280]\'','\'(145-190]\'',DOWN,RIGHT,True,False,True,True,RIGHT,RIGHT
'\'(190-235]\'','\'(415-inf)\'',UP,RIGHT,False,True,True,True,LEFT,LEFT
'\'(145-190]\'','\'(55-100]\'',UP,EQUAL,True,True,True,False,UP,UP
'\'(415-inf)\'','\'(-inf-55]\'',DOWN,RIGHT,True,False,False,True,RIGHT,RIGHT
'\'(100-145]\'','\'(-inf-55]\'',UP,RIGHT,True,True,False,True,DOWN,DOWN
'\'(-inf-55]\'','\'(235-280]\'',UP,LEFT,True,True,True,False,UP,UP
'\'(235-280]\'','\'(415-inf)\'',EQUAL,EQUAL,True,True,False,True,DOWN,DOWN
'\'(145-190]\'','\'(370-415]\'',UP,RIGHT,False,True,True,True,LEFT,LEFT
'\'(415-inf)\'','\'(280-325]\'',DOWN,RIGHT,True,True,False,True,DOWN,DOWN
'\'(-inf-55]\'','\'(325-370]\'',EQUAL,LEFT,False,True,True,True,LEFT,LEFT
'\'(415-inf)\'','\'(415-inf)\'',DOWN,RIGHT,True,False,True,True,RIGHT,RIGHT
'\'(55-100]\'','\'(370-415]\'',DOWN,EQUAL,True,True,False,True,DOWN,DOWN
'\'(100-145]\'','\'(-inf-55]\'',UP,LEFT,True,True,True,False,UP,UP
'\'(-inf-55]\'','\'(100-145]\'',DOWN,LEFT,False,True,True,True,LEFT,LEFT
'\'(-inf-55]\'','\'(190-235]\'',UP,LEFT,True,True,True,False,UP,UP
'\'(-inf-55]\'','\'(415-inf)\'',DOWN,EQUAL,True,True,False,True,DOWN,DOWN
'\'(280-325]\'','\'(-inf-55]\'',UP,EQUAL,True,True,True,False,UP,UP
'\'(370-415]\'','\'(-inf-55]\'',DOWN,RIGHT,True,False,True,True,RIGHT,RIGHT
'\'(145-190]\'','\'(145-190]\'',DOWN,EQUAL,True,True,False,True,DOWN,DOWN
'\'(280-325]\'','\'(100-145]\'',DOWN,EQUAL,True,False,False,True,DOWN,DOWN
'\'(-inf-55]\'','\'(415-inf)\'',DOWN,LEFT,True,True,False,True,DOWN,DOWN
'\'(415-inf)\'','\'(280-325]\'',DOWN,RIGHT,True,False,True,True,RIGHT,RIGHT
'\'(100-145]\'','\'(55-100]\'',UP,EQUAL,True,True,True,False,UP,UP
'\'(415-inf)\'','\'(235-280]\'',DOWN,RIGHT,True,True,False,True,DOWN,DOWN
'\'(190-235]\'','\'(415-inf)\'',DOWN,RIGHT,True,True,True,False,UP,UP
'\'(370-415]\'','\'(235-280]\'',UP,LEFT,True,True,False,True,DOWN,DOWN
'\'(55-100]\'','\'(325-370]\'',EQUAL,LEFT,False,True,True,True,LEFT,LEFT
'\'(325-370]\'','\'(280-325]\'',UP,LEFT,False,True,True,True,LEFT,LEFT
'\'(415-inf)\'','\'(235-280]\'',DOWN,RIGHT,True,False,True,True,RIGHT,RIGHT
'\'(235-280]\'','\'(145-190]\'',DOWN,RIGHT,True,False,True,True,RIGHT,RIGHT
'\'(370-415]\'','\'(-inf-55]\'',UP,RIGHT,True,True,True,False,UP,UP
'\'(235-280]\'','\'(190-235]\'',UP,EQUAL,True,True,True,False,UP,UP
'\'(325-370]\'','\'(190-235]\'',UP,LEFT,True,False,True,True,RIGHT,RIGHT
'\'(415-inf)\'','\'(280-325]\'',DOWN,RIGHT,True,False,True,True,RIGHT,RIGHT
'\'(-inf-55]\'','\'(370-415]\'',DOWN,LEFT,False,True,True,True,LEFT,LEFT
'\'(-inf-55]\'','\'(370-415]\'',DOWN,EQUAL,True,True,False,True,DOWN,DOWN
'\'(280-325]\'','\'(100-145]\'',UP,RIGHT,True,True,True,False,UP,UP
'\'(-inf-55]\'','\'(190-235]\'',UP,LEFT,True,False,True,True,RIGHT,RIGHT
'\'(280-325]\'','\'(100-145]\'',UP,RIGHT,False,True,True,True,LEFT,LEFT
'\'(145-190]\'','\'(235-280]\'',DOWN,LEFT,True,True,False,True,DOWN,DOWN
'\'(-inf-55]\'','\'(370-415]\'',DOWN,EQUAL,False,True,True,True,LEFT,LEFT
'\'(55-100]\'','\'(370-415]\'',DOWN,EQUAL,False,True,True,True,LEFT,DOWN
'\'(55-100]\'','\'(370-415]\'',DOWN,RIGHT,True,False,True,True,RIGHT,RIGHT
'\'(415-inf)\'','\'(280-325]\'',DOWN,RIGHT,True,True,False,True,DOWN,DOWN
'\'(100-145]\'','\'(-inf-55]\'',DOWN,LEFT,False,True,True,True,LEFT,DOWN
'\'(280-325]\'','\'(-inf-55]\'',UP,EQUAL,True,True,True,False,UP,UP
'\'(-inf-55]\'','\'(415-inf)\'',DOWN,LEFT,True,True,False,True,DOWN,DOWN
'\'(55-100]\'','\'(325-370]\'',EQUAL,LEFT,False,True,True,True,LEFT,LEFT
'\'(55-100]\'','\'(-inf-55]\'',UP,LEFT,False,True,True,True,LEFT,UP
'\'(-inf-55]\'','\'(415-inf)\'',DOWN,LEFT,True,True,False,True,DOWN,DOWN
'\'(145-190]\'','\'(55-100]\'',UP,LEFT,True,True,True,False,UP,UP
'\'(-inf-55]\'','\'(235-280]\'',EQUAL,LEFT,False,True,True,True,LEFT,LEFT
'\'(-inf-55]\'','\'(370-415]\'',EQUAL,LEFT,True,True,True,False,UP,LEFT
'\'(415-inf)\'','\'(415-inf)\'',DOWN,RIGHT,False,True,True,True,LEFT,LEFT
'\'(-inf-55]\'','\'(325-370]\'',DOWN,LEFT,True,False,True,True,RIGHT,RIGHT
'\'(370-415]\'','\'(55-100]\'',DOWN,RIGHT,True,False,True,True,RIGHT,RIGHT
'\'(100-145]\'','\'(-inf-55]\'',DOWN,LEFT,False,True,True,True,LEFT,LEFT
'\'(325-370]\'','\'(415-inf)\'',DOWN,RIGHT,False,True,True,True,LEFT,DOWN
'\'(370-415]\'','\'(145-190]\'',UP,EQUAL,False,True,True,False,UP,UP
'\'(55-100]\'','\'(370-415]\'',DOWN,LEFT,False,True,True,True,LEFT,LEFT
'\'(145-190]\'','\'(145-190]\'',DOWN,LEFT,False,True,True,True,LEFT,LEFT
'\'(145-190]\'','\'(325-370]\'',DOWN,RIGHT,True,False,True,True,RIGHT,RIGHT
'\'(145-190]\'','\'(415-inf)\'',DOWN,EQUAL,False,True,True,True,LEFT,DOWN
'\'(55-100]\'','\'(325-370]\'',EQUAL,LEFT,False,True,True,True,LEFT,LEFT
'\'(-inf-55]\'','\'(370-415]\'',DOWN,LEFT,False,True,True,True,LEFT,LEFT
'\'(235-280]\'','\'(145-190]\'',DOWN,RIGHT,True,False,True,True,RIGHT,RIGHT
'\'(-inf-55]\'','\'(415-inf)\'',DOWN,LEFT,True,True,False,True,DOWN,DOWN
'\'(370-415]\'','\'(190-235]\'',UP,LEFT,False,True,True,True,LEFT,LEFT
'\'(100-145]\'','\'(55-100]\'',UP,LEFT,False,True,True,True,LEFT,LEFT
'\'(415-inf)\'','\'(235-280]\'',DOWN,RIGHT,True,False,True,True,RIGHT,RIGHT
'\'(370-415]\'','\'(235-280]\'',UP,RIGHT,True,True,True,False,UP,UP
'\'(235-280]\'','\'(190-235]\'',UP,LEFT,True,True,False,True,DOWN,DOWN
'\'(145-190]\'','\'(415-inf)\'',DOWN,RIGHT,True,True,False,True,DOWN,DOWN
'\'(145-190]\'','\'(235-280]\'',DOWN,LEFT,True,True,False,True,DOWN,DOWN
'\'(100-145]\'','\'(55-100]\'',UP,RIGHT,True,False,True,True,RIGHT,RIGHT
'\'(-inf-55]\'','\'(235-280]\'',DOWN,LEFT,True,True,False,True,DOWN,DOWN
'\'(325-370]\'','\'(190-235]\'',UP,EQUAL,True,False,True,True,RIGHT,RIGHT
'\'(415-inf)\'','\'(415-inf)\'',DOWN,RIGHT,True,False,True,True,RIGHT,RIGHT
'\'(325-370]\'','\'(415-inf)\'',DOWN,LEFT,True,True,False,True,DOWN,DOWN
'\'(415-inf)\'','\'(415-inf)\'',DOWN,RIGHT,True,True,False,True,DOWN,DOWN
'\'(55-100]\'','\'(145-190]\'',DOWN,EQUAL,True,True,False,True,DOWN,DOWN
'\'(415-inf)\'','\'(280-325]\'',DOWN,RIGHT,True,False,True,True,RIGHT,RIGHT
'\'(280-325]\'','\'(325-370]\'',EQUAL,RIGHT,True,True,True,False,UP,RIGHT
'\'(145-190]\'','\'(370-415]\'',EQUAL,LEFT,True,True,False,True,DOWN,DOWN
'\'(55-100]\'','\'(325-370]\'',DOWN,LEFT,True,True,False,True,DOWN,DOWN
'\'(370-415]\'','\'(55-100]\'',DOWN,RIGHT,True,False,True,True,RIGHT,RIGHT
'\'(190-235]\'','\'(55-100]\'',DOWN,RIGHT,True,True,True,False,UP,UP
'\'(325-370]\'','\'(190-235]\'',DOWN,LEFT,True,True,True,False,UP,UP
'\'(280-325]\'','\'(100-145]\'',UP,LEFT,True,True,True,False,UP,UP
'\'(370-415]\'','\'(145-190]\'',DOWN,RIGHT,True,False,True,True,RIGHT,RIGHT
'\'(415-inf)\'','\'(-inf-55]\'',DOWN,RIGHT,True,False,False,True,RIGHT,RIGHT
'\'(325-370]\'','\'(415-inf)\'',EQUAL,EQUAL,True,True,False,True,DOWN,DOWN
'\'(-inf-55]\'','\'(370-415]\'',DOWN,LEFT,True,True,True,False,UP,UP
'\'(-inf-55]\'','\'(370-415]\'',DOWN,LEFT,False,True,True,True,LEFT,LEFT
'\'(415-inf)\'','\'(280-325]\'',DOWN,RIGHT,True,False,True,True,RIGHT,RIGHT
'\'(325-370]\'','\'(280-325]\'',UP,RIGHT,True,False,True,True,RIGHT,RIGHT
'\'(-inf-55]\'','\'(415-inf)\'',DOWN,LEFT,True,True,False,True,DOWN,DOWN
'\'(415-inf)\'','\'(280-325]\'',DOWN,RIGHT,True,False,True,True,RIGHT,RIGHT
'\'(-inf-55]\'','\'(190-235]\'',UP,LEFT,True,False,True,True,RIGHT,RIGHT
'\'(-inf-55]\'','\'(325-370]\'',DOWN,LEFT,True,True,False,True,DOWN,DOWN
'\'(415-inf)\'','\'(235-280]\'',DOWN,RIGHT,True,True,False,True,DOWN,RIGHT
'\'(235-280]\'','\'(190-235]\'',UP,EQUAL,True,True,True,False,UP,UP
'\'(235-280]\'','\'(190-235]\'',UP,LEFT,False,True,True,True,LEFT,LEFT
'\'(415-inf)\'','\'(-inf-55]\'',UP,RIGHT,True,False,True,True,RIGHT,RIGHT
'\'(55-100]\'','\'(-inf-55]\'',UP,LEFT,True,True,True,False,UP,UP
'\'(145-190]\'','\'(145-190]\'',DOWN,LEFT,True,True,True,False,UP,LEFT
'\'(-inf-55]\'','\'(370-415]\'',DOWN,LEFT,False,True,True,True,LEFT,LEFT
'\'(280-325]\'','\'(100-145]\'',UP,LEFT,True,True,True,False,UP,UP
'\'(325-370]\'','\'(280-325]\'',UP,LEFT,False,True,True,True,LEFT,LEFT
'\'(145-190]\'','\'(415-inf)\'',DOWN,RIGHT,True,True,False,True,DOWN,DOWN
'\'(100-145]\'','\'(415-inf)\'',EQUAL,RIGHT,True,True,False,True,DOWN,RIGHT
'\'(415-inf)\'','\'(55-100]\'',EQUAL,RIGHT,True,False,True,True,RIGHT,RIGHT
'\'(100-145]\'','\'(415-inf)\'',DOWN,LEFT,False,True,True,True,LEFT,LEFT
'\'(-inf-55]\'','\'(190-235]\'',EQUAL,LEFT,False,True,True,True,LEFT,LEFT
'\'(280-325]\'','\'(-inf-55]\'',UP,RIGHT,True,False,True,False,UP,UP
'\'(280-325]\'','\'(-inf-55]\'',UP,EQUAL,True,True,True,False,UP,UP
'\'(415-inf)\'','\'(415-inf)\'',DOWN,RIGHT,True,False,True,True,RIGHT,RIGHT
'\'(55-100]\'','\'(-inf-55]\'',UP,RIGHT,True,True,True,False,UP,UP
'\'(-inf-55]\'','\'(415-inf)\'',DOWN,LEFT,False,True,True,True,LEFT,DOWN
'\'(100-145]\'','\'(415-inf)\'',DOWN,RIGHT,True,True,False,True,DOWN,DOWN
'\'(415-inf)\'','\'(280-325]\'',DOWN,RIGHT,True,True,False,True,DOWN,DOWN
'\'(-inf-55]\'','\'(190-235]\'',UP,LEFT,True,True,True,False,UP,UP
'\'(145-190]\'','\'(145-190]\'',DOWN,EQUAL,True,True,False,True,DOWN,DOWN
'\'(325-370]\'','\'(280-325]\'',UP,RIGHT,True,False,True,True,RIGHT,RIGHT
'\'(190-235]\'','\'(415-inf)\'',DOWN,RIGHT,True,True,False,True,DOWN,DOWN
'\'(190-235]\'','\'(325-370]\'',UP,RIGHT,True,False,True,True,RIGHT,RIGHT
'\'(145-190]\'','\'(55-100]\'',UP,LEFT,True,True,True,False,UP,UP
'\'(325-370]\'','\'(415-inf)\'',DOWN,LEFT,True,True,False,True,DOWN,DOWN
'\'(280-325]\'','\'(100-145]\'',DOWN,EQUAL,True,False,False,True,DOWN,DOWN
'\'(145-190]\'','\'(415-inf)\'',DOWN,RIGHT,True,True,False,True,DOWN,DOWN
'\'(145-190]\'','\'(145-190]\'',DOWN,RIGHT,True,True,False,True,DOWN,DOWN
'\'(280-325]\'','\'(100-145]\'',UP,LEFT,True,False,True,True,RIGHT,UP
'\'(55-100]\'','\'(-inf-55]\'',UP,RIGHT,True,True,True,False,UP,UP
'\'(370-415]\'','\'(55-100]\'',UP,RIGHT,True,True,True,False,UP,UP
'\'(100-145]\'','\'(55-100]\'',UP,LEFT,False,True,True,True,LEFT,LEFT
'\'(-inf-55]\'','\'(370-415]\'',DOWN,LEFT,False,True,True,True,LEFT,LEFT
'\'(-inf-55]\'','\'(190-235]\'',EQUAL,LEFT,False,True,True,True,LEFT,LEFT
'\'(235-280]\'','\'(145-190]\'',DOWN,RIGHT,True,False,True,True,RIGHT,RIGHT
'\'(370-415]\'','\'(190-235]\'',UP,EQUAL,True,True,True,False,UP,UP
'\'(190-235]\'','\'(55-100]\'',EQUAL,RIGHT,True,False,True,True,RIGHT,RIGHT
'\'(-inf-55]\'','\'(370-415]\'',DOWN,LEFT,False,True,True,True,LEFT,LEFT
'\'(370-415]\'','\'(235-280]\'',UP,LEFT,True,True,False,True,DOWN,DOWN
'\'(145-190]\'','\'(55-100]\'',DOWN,LEFT,False,True,True,True,LEFT,LEFT
'\'(145-190]\'','\'(235-280]\'',EQUAL,LEFT,False,True,True,True,LEFT,LEFT
'\'(190-235]\'','\'(415-inf)\'',DOWN,RIGHT,True,False,True,True,RIGHT,RIGHT
'\'(370-415]\'','\'(-inf-55]\'',UP,RIGHT,True,False,True,True,RIGHT,UP
'\'(55-100]\'','\'(-inf-55]\'',UP,LEFT,True,True,True,False,UP,UP
'\'(-inf-55]\'','\'(325-370]\'',DOWN,LEFT,True,True,False,True,DOWN,DOWN
'\'(145-190]\'','\'(55-100]\'',UP,LEFT,True,True,True,False,UP,UP
'\'(190-235]\'','\'(415-inf)\'',EQUAL,EQUAL,True,False,True,True,RIGHT,RIGHT
'\'(325-370]\'','\'(190-235]\'',DOWN,LEFT,False,True,True,True,LEFT,LEFT
'\'(55-100]\'','\'(325-370]\'',DOWN,LEFT,True,True,False,True,DOWN,DOWN
'\'(145-190]\'','\'(415-inf)\'',DOWN,EQUAL,True,True,False,True,DOWN,DOWN
'\'(55-100]\'','\'(-inf-55]\'',UP,LEFT,False,True,True,True,LEFT,LEFT
'\'(55-100]\'','\'(-inf-55]\'',UP,RIGHT,True,True,True,False,UP,UP
'\'(55-100]\'','\'(-inf-55]\'',UP,LEFT,False,True,True,False,UP,UP
'\'(325-370]\'','\'(325-370]\'',DOWN,EQUAL,True,True,False,True,DOWN,DOWN
'\'(325-370]\'','\'(325-370]\'',DOWN,EQUAL,True,True,False,True,DOWN,DOWN
'\'(55-100]\'','\'(145-190]\'',DOWN,EQUAL,True,True,False,True,DOWN,DOWN
'\'(415-inf)\'','\'(-inf-55]\'',DOWN,RIGHT,True,False,False,True,RIGHT,RIGHT
'\'(55-100]\'','\'(-inf-55]\'',UP,LEFT,False,True,True,True,LEFT,LEFT
'\'(280-325]\'','\'(235-280]\'',UP,RIGHT,True,False,True,False,RIGHT,RIGHT
'\'(100-145]\'','\'(55-100]\'',UP,EQUAL,True,True,True,False,UP,UP
'\'(145-190]\'','\'(235-280]\'',EQUAL,LEFT,False,True,True,True,LEFT,LEFT
'\'(415-inf)\'','\'(235-280]\'',DOWN,RIGHT,True,False,True,True,RIGHT,RIGHT
'\'(235-280]\'','\'(370-415]\'',UP,RIGHT,True,False,True,True,RIGHT,RIGHT
'\'(415-inf)\'','\'(-inf-55]\'',DOWN,RIGHT,True,False,False,True,RIGHT,RIGHT
'\'(280-325]\'','\'(100-145]\'',UP,RIGHT,True,False,True,True,RIGHT,RIGHT
'\'(415-inf)\'','\'(415-inf)\'',DOWN,RIGHT,True,True,False,True,DOWN,DOWN
'\'(325-370]\'','\'(415-inf)\'',DOWN,LEFT,True,True,False,True,DOWN,DOWN
'\'(235-280]\'','\'(190-235]\'',UP,LEFT,False,True,True,True,LEFT,LEFT
'\'(145-190]\'','\'(55-100]\'',UP,RIGHT,True,True,False,True,DOWN,DOWN
'\'(370-415]\'','\'(55-100]\'',DOWN,RIGHT,True,True,True,False,UP,UP
'\'(415-inf)\'','\'(280-325]\'',DOWN,RIGHT,True,False,True,True,RIGHT,RIGHT
'\'(100-145]\'','\'(55-100]\'',UP,RIGHT,True,True,True,False,UP,UP
'\'(-inf-55]\'','\'(235-280]\'',UP,LEFT,True,True,True,False,UP,UP
'\'(145-190]\'','\'(145-190]\'',DOWN,LEFT,False,True,True,True,LEFT,LEFT
'\'(235-280]\'','\'(100-145]\'',EQUAL,EQUAL,True,False,True,True,RIGHT,RIGHT
'\'(145-190]\'','\'(145-190]\'',DOWN,LEFT,False,True,True,True,LEFT,LEFT
'\'(325-370]\'','\'(415-inf)\'',DOWN,LEFT,True,True,False,True,DOWN,DOWN
'\'(55-100]\'','\'(-inf-55]\'',UP,LEFT,True,True,False,True,DOWN,DOWN
'\'(370-415]\'','\'(-inf-55]\'',UP,RIGHT,True,False,True,True,RIGHT,UP
'\'(235-280]\'','\'(415-inf)\'',EQUAL,LEFT,True,True,False,True,DOWN,LEFT
'\'(235-280]\'','\'(190-235]\'',UP,LEFT,False,True,True,True,LEFT,LEFT
'\'(-inf-55]\'','\'(190-235]\'',EQUAL,LEFT,False,True,True,True,LEFT,LEFT
'\'(55-100]\'','\'(325-370]\'',DOWN,LEFT,True,True,False,True,DOWN,DOWN
'\'(415-inf)\'','\'(55-100]\'',UP,RIGHT,True,True,True,False,UP,UP
'\'(325-370]\'','\'(280-325]\'',UP,EQUAL,True,True,True,False,UP,UP
'\'(235-280]\'','\'(190-235]\'',UP,LEFT,False,True,True,True,LEFT,LEFT
'\'(145-190]\'','\'(415-inf)\'',DOWN,LEFT,False,True,True,True,LEFT,LEFT
'\'(415-inf)\'','\'(235-280]\'',DOWN,RIGHT,True,True,False,True,DOWN,DOWN
'\'(145-190]\'','\'(370-415]\'',UP,EQUAL,False,True,True,True,LEFT,LEFT
'\'(415-inf)\'','\'(-inf-55]\'',UP,EQUAL,True,True,True,False,UP,UP
'\'(145-190]\'','\'(415-inf)\'',DOWN,RIGHT,True,True,False,True,DOWN,DOWN
'\'(370-415]\'','\'(-inf-55]\'',EQUAL,EQUAL,True,True,True,False,UP,UP
'\'(100-145]\'','\'(55-100]\'',UP,RIGHT,True,False,True,True,RIGHT,UP
'\'(100-145]\'','\'(415-inf)\'',DOWN,LEFT,True,True,False,True,DOWN,DOWN
'\'(100-145]\'','\'(55-100]\'',UP,LEFT,False,True,True,True,LEFT,LEFT
'\'(-inf-55]\'','\'(370-415]\'',DOWN,EQUAL,True,True,False,True,DOWN,DOWN
'\'(190-235]\'','\'(55-100]\'',DOWN,RIGHT,True,False,True,True,RIGHT,DOWN
'\'(190-235]\'','\'(415-inf)\'',DOWN,RIGHT,True,False,True,True,RIGHT,RIGHT
'\'(-inf-55]\'','\'(415-inf)\'',DOWN,LEFT,True,True,False,True,DOWN,DOWN
'\'(-inf-55]\'','\'(370-415]\'',EQUAL,EQUAL,True,True,True,False,UP,UP
'\'(55-100]\'','\'(-inf-55]\'',UP,RIGHT,True,True,True,False,UP,UP
'\'(-inf-55]\'','\'(370-415]\'',DOWN,LEFT,False,True,True,True,LEFT,LEFT
'\'(100-145]\'','\'(55-100]\'',UP,LEFT,True,True,False,True,DOWN,DOWN
'\'(100-145]\'','\'(55-100]\'',UP,LEFT,True,True,False,True,DOWN,DOWN
'\'(190-235]\'','\'(415-inf)\'',DOWN,RIGHT,True,False,True,True,RIGHT,RIGHT
'\'(145-190]\'','\'(145-190]\'',DOWN,LEFT,False,True,True,True,LEFT,LEFT
'\'(370-415]\'','\'(55-100]\'',DOWN,RIGHT,True,False,True,True,RIGHT,RIGHT
'\'(-inf-55]\'','\'(415-inf)\'',DOWN,LEFT,True,True,False,True,DOWN,DOWN
'\'(325-370]\'','\'(415-inf)\'',DOWN,LEFT,True,True,False,True,DOWN,DOWN
'\'(370-415]\'','\'(-inf-55]\'',UP,RIGHT,True,False,True,True,RIGHT,RIGHT
'\'(415-inf)\'','\'(-inf-55]\'',UP,RIGHT,True,False,True,True,RIGHT,RIGHT
'\'(145-190]\'','\'(370-415]\'',UP,RIGHT,False,True,True,True,LEFT,UP
'\'(55-100]\'','\'(325-370]\'',EQUAL,LEFT,False,True,True,True,LEFT,LEFT
'\'(100-145]\'','\'(55-100]\'',UP,RIGHT,True,False,True,True,RIGHT,RIGHT
'\'(280-325]\'','\'(-inf-55]\'',UP,EQUAL,True,True,True,False,UP,UP
'\'(55-100]\'','\'(325-370]\'',EQUAL,LEFT,False,True,True,True,LEFT,LEFT
'\'(190-235]\'','\'(55-100]\'',EQUAL,RIGHT,True,False,True,True,RIGHT,RIGHT
'\'(55-100]\'','\'(325-370]\'',EQUAL,LEFT,False,True,True,True,LEFT,LEFT
'\'(-inf-55]\'','\'(235-280]\'',DOWN,LEFT,True,True,False,True,DOWN,DOWN
'\'(325-370]\'','\'(415-inf)\'',EQUAL,RIGHT,True,False,False,True,RIGHT,RIGHT
'\'(235-280]\'','\'(100-145]\'',DOWN,LEFT,True,True,False,True,DOWN,DOWN
'\'(235-280]\'','\'(145-190]\'',DOWN,RIGHT,True,True,True,False,UP,RIGHT
'\'(280-325]\'','\'(235-280]\'',UP,RIGHT,True,False,True,False,RIGHT,RIGHT
'\'(235-280]\'','\'(145-190]\'',UP,EQUAL,False,True,True,True,LEFT,LEFT
'\'(415-inf)\'','\'(280-325]\'',DOWN,RIGHT,True,False,True,True,RIGHT,RIGHT
'\'(100-145]\'','\'(55-100]\'',UP,RIGHT,True,False,True,True,RIGHT,RIGHT
'\'(-inf-55]\'','\'(370-415]\'',DOWN,EQUAL,True,True,False,True,DOWN,DOWN
'\'(280-325]\'','\'(100-145]\'',UP,LEFT,True,True,True,False,UP,UP
'\'(145-190]\'','\'(370-415]\'',EQUAL,EQUAL,True,True,False,True,DOWN,DOWN
'\'(55-100]\'','\'(-inf-55]\'',UP,RIGHT,True,True,True,False,UP,UP
'\'(100-145]\'','\'(-inf-55]\'',DOWN,LEFT,False,True,True,True,LEFT,LEFT
'\'(55-100]\'','\'(325-370]\'',DOWN,LEFT,True,True,False,True,DOWN,DOWN
'\'(280-325]\'','\'(-inf-55]\'',UP,RIGHT,True,False,True,False,UP,UP
'\'(55-100]\'','\'(325-370]\'',DOWN,LEFT,True,True,False,True,DOWN,DOWN
'\'(-inf-55]\'','\'(415-inf)\'',DOWN,LEFT,True,True,False,True,DOWN,DOWN
'\'(-inf-55]\'','\'(370-415]\'',DOWN,LEFT,False,True,True,True,LEFT,LEFT
'\'(-inf-55]\'','\'(100-145]\'',DOWN,LEFT,False,True,True,True,LEFT,LEFT
'\'(190-235]\'','\'(415-inf)\'',DOWN,RIGHT,True,True,False,True,DOWN,DOWN
'\'(55-100]\'','\'(-inf-55]\'',UP,LEFT,False,True,True,True,LEFT,LEFT
'\'(280-325]\'','\'(100-145]\'',UP,LEFT,True,True,True,False,UP,UP
'\'(415-inf)\'','\'(145-190]\'',UP,EQUAL,True,True,True,False,UP,UP
'\'(145-190]\'','\'(415-inf)\'',DOWN,RIGHT,True,True,False,True,DOWN,DOWN
'\'(100-145]\'','\'(-inf-55]\'',DOWN,EQUAL,False,True,False,True,LEFT,LEFT
'\'(190-235]\'','\'(325-370]\'',UP,EQUAL,True,True,True,False,UP,UP
'\'(415-inf)\'','\'(235-280]\'',EQUAL,EQUAL,True,False,True,True,RIGHT,RIGHT
'\'(190-235]\'','\'(415-inf)\'',DOWN,RIGHT,True,True,True,False,UP,UP
'\'(145-190]\'','\'(145-190]\'',DOWN,LEFT,False,True,True,True,LEFT,LEFT
'\'(-inf-55]\'','\'(370-415]\'',DOWN,RIGHT,True,True,False,True,DOWN,DOWN
'\'(-inf-55]\'','\'(415-inf)\'',DOWN,EQUAL,True,True,False,True,DOWN,DOWN
'\'(-inf-55]\'','\'(235-280]\'',UP,LEFT,True,True,True,False,UP,UP
'\'(415-inf)\'','\'(-inf-55]\'',UP,EQUAL,True,False,True,True,RIGHT,UP
'\'(415-inf)\'','\'(280-325]\'',DOWN,RIGHT,False,True,True,True,LEFT,DOWN
'\'(145-190]\'','\'(235-280]\'',DOWN,LEFT,False,True,True,True,LEFT,LEFT
'\'(235-280]\'','\'(145-190]\'',UP,RIGHT,True,True,False,True,DOWN,DOWN
'\'(-inf-55]\'','\'(415-inf)\'',DOWN,LEFT,False,True,True,True,LEFT,LEFT
'\'(100-145]\'','\'(55-100]\'',UP,LEFT,False,True,True,True,LEFT,LEFT
'\'(280-325]\'','\'(-inf-55]\'',UP,EQUAL,True,True,True,False,UP,UP
'\'(370-415]\'','\'(190-235]\'',UP,EQUAL,True,True,True,False,UP,UP
'\'(415-inf)\'','\'(325-370]\'',DOWN,RIGHT,True,False,True,True,RIGHT,RIGHT
'\'(235-280]\'','\'(100-145]\'',DOWN,EQUAL,True,False,True,True,RIGHT,RIGHT
'\'(325-370]\'','\'(280-325]\'',UP,RIGHT,True,False,True,True,RIGHT,RIGHT
'\'(145-190]\'','\'(55-100]\'',EQUAL,EQUAL,True,True,True,False,UP,UP
'\'(100-145]\'','\'(415-inf)\'',DOWN,LEFT,True,False,True,True,RIGHT,DOWN
'\'(280-325]\'','\'(-inf-55]\'',UP,EQUAL,True,False,True,True,RIGHT,UP
'\'(100-145]\'','\'(55-100]\'',UP,RIGHT,True,True,True,False,UP,UP
'\'(415-inf)\'','\'(-inf-55]\'',UP,RIGHT,True,False,True,True,RIGHT,RIGHT
'\'(280-325]\'','\'(100-145]\'',DOWN,EQUAL,True,False,False,True,DOWN,DOWN
'\'(145-190]\'','\'(370-415]\'',EQUAL,RIGHT,True,False,True,False,RIGHT,RIGHT
'\'(415-inf)\'','\'(415-inf)\'',DOWN,RIGHT,True,False,True,True,RIGHT,RIGHT
'\'(-inf-55]\'','\'(235-280]\'',DOWN,LEFT,True,True,False,True,DOWN,DOWN
'\'(235-280]\'','\'(415-inf)\'',EQUAL,LEFT,False,True,True,True,LEFT,LEFT
'\'(-inf-55]\'','\'(235-280]\'',DOWN,LEFT,True,True,False,True,DOWN,DOWN
'\'(-inf-55]\'','\'(415-inf)\'',DOWN,EQUAL,True,True,False,True,DOWN,DOWN
'\'(280-325]\'','\'(-inf-55]\'',UP,EQUAL,True,True,True,False,UP,UP
'\'(325-370]\'','\'(280-325]\'',UP,EQUAL,True,True,True,False,UP,UP
'\'(145-190]\'','\'(235-280]\'',EQUAL,LEFT,False,True,True,True,LEFT,LEFT
'\'(325-370]\'','\'(190-235]\'',DOWN,RIGHT,False,True,True,True,LEFT,LEFT
'\'(-inf-55]\'','\'(415-inf)\'',DOWN,LEFT,False,True,True,True,LEFT,LEFT
'\'(-inf-55]\'','\'(370-415]\'',UP,LEFT,True,False,True,True,RIGHT,RIGHT
'\'(55-100]\'','\'(370-415]\'',DOWN,RIGHT,True,True,True,False,UP,UP
'\'(415-inf)\'','\'(280-325]\'',DOWN,RIGHT,True,False,True,True,RIGHT,RIGHT
'\'(190-235]\'','\'(415-inf)\'',UP,RIGHT,False,True,True,True,LEFT,LEFT
'\'(145-190]\'','\'(55-100]\'',DOWN,LEFT,False,True,True,True,LEFT,LEFT
'\'(-inf-55]\'','\'(370-415]\'',DOWN,LEFT,False,True,True,True,LEFT,LEFT
'\'(-inf-55]\'','\'(325-370]\'',EQUAL,LEFT,False,True,True,True,LEFT,LEFT
'\'(55-100]\'','\'(-inf-55]\'',UP,LEFT,False,True,True,True,LEFT,LEFT
'\'(325-370]\'','\'(190-235]\'',DOWN,LEFT,False,True,True,True,LEFT,LEFT
'\'(235-280]\'','\'(145-190]\'',UP,RIGHT,False,True,True,True,LEFT,LEFT
'\'(145-190]\'','\'(145-190]\'',DOWN,LEFT,False,True,True,True,LEFT,LEFT
'\'(190-235]\'','\'(415-inf)\'',DOWN,RIGHT,True,False,True,True,RIGHT,RIGHT
'\'(100-145]\'','\'(415-inf)\'',DOWN,RIGHT,True,True,False,True,DOWN,DOWN
'\'(235-280]\'','\'(190-235]\'',UP,LEFT,False,True,True,True,LEFT,LEFT
'\'(-inf-55]\'','\'(325-370]\'',EQUAL,LEFT,False,True,True,True,LEFT,LEFT
'\'(145-190]\'','\'(145-190]\'',DOWN,RIGHT,True,True,False,True,DOWN,DOWN
'\'(55-100]\'','\'(-inf-55]\'',UP,RIGHT,False,True,True,True,LEFT,UP
'\'(370-415]\'','\'(55-100]\'',UP,RIGHT,True,True,True,False,UP,UP
'\'(280-325]\'','\'(-inf-55]\'',UP,RIGHT,True,False,True,True,RIGHT,RIGHT
'\'(235-280]\'','\'(370-415]\'',UP,EQUAL,True,True,True,False,UP,UP
'\'(370-415]\'','\'(-inf-55]\'',EQUAL,RIGHT,True,True,True,False,UP,RIGHT
'\'(235-280]\'','\'(370-415]\'',UP,EQUAL,True,True,True,False,UP,UP
'\'(370-415]\'','\'(190-235]\'',UP,EQUAL,True,True,True,False,UP,UP
'\'(145-190]\'','\'(55-100]\'',UP,EQUAL,True,False,True,False,UP,UP
'\'(-inf-55]\'','\'(235-280]\'',UP,LEFT,True,True,True,False,UP,UP
'\'(-inf-55]\'','\'(370-415]\'',DOWN,LEFT,True,True,True,False,UP,LEFT
'\'(235-280]\'','\'(190-235]\'',UP,LEFT,False,True,True,True,LEFT,LEFT
'\'(55-100]\'','\'(-inf-55]\'',UP,EQUAL,True,True,True,False,UP,UP
'\'(100-145]\'','\'(55-100]\'',UP,LEFT,False,True,True,True,LEFT,LEFT
'\'(280-325]\'','\'(100-145]\'',UP,RIGHT,True,True,True,False,UP,UP
'\'(100-145]\'','\'(-inf-55]\'',UP,EQUAL,True,True,True,False,UP,UP
'\'(-inf-55]\'','\'(190-235]\'',UP,LEFT,True,True,True,False,UP,UP
'\'(235-280]\'','\'(145-190]\'',EQUAL,RIGHT,True,False,True,False,RIGHT,RIGHT
'\'(280-325]\'','\'(-inf-55]\'',UP,EQUAL,True,True,True,False,UP,UP
'\'(235-280]\'','\'(145-190]\'',DOWN,RIGHT,True,False,True,True,RIGHT,RIGHT
'\'(55-100]\'','\'(-inf-55]\'',UP,RIGHT,True,True,True,False,UP,UP
'\'(190-235]\'','\'(325-370]\'',UP,RIGHT,True,False,True,True,RIGHT,RIGHT
'\'(100-145]\'','\'(55-100]\'',UP,RIGHT,True,True,True,False,UP,UP
'\'(235-280]\'','\'(100-145]\'',DOWN,RIGHT,True,False,True,True,RIGHT,RIGHT
'\'(235-280]\'','\'(145-190]\'',UP,RIGHT,True,False,True,True,RIGHT,RIGHT
'\'(235-280]\'','\'(145-190]\'',UP,RIGHT,False,True,True,True,LEFT,LEFT
'\'(145-190]\'','\'(145-190]\'',DOWN,LEFT,False,True,True,True,LEFT,LEFT
'\'(280-325]\'','\'(100-145]\'',UP,LEFT,True,True,True,False,UP,UP
'\'(190-235]\'','\'(415-inf)\'',DOWN,RIGHT,True,True,True,False,UP,UP
'\'(55-100]\'','\'(325-370]\'',DOWN,LEFT,True,True,False,True,DOWN,DOWN
'\'(145-190]\'','\'(415-inf)\'',DOWN,LEFT,False,True,True,True,LEFT,LEFT
'\'(55-100]\'','\'(325-370]\'',EQUAL,LEFT,False,True,True,True,LEFT,LEFT
'\'(415-inf)\'','\'(235-280]\'',DOWN,RIGHT,True,False,True,True,RIGHT,RIGHT
'\'(325-370]\'','\'(280-325]\'',DOWN,LEFT,True,True,False,True,DOWN,DOWN
'\'(415-inf)\'','\'(-inf-55]\'',DOWN,RIGHT,True,False,False,True,RIGHT,RIGHT
'\'(325-370]\'','\'(190-235]\'',DOWN,LEFT,False,True,True,True,LEFT,LEFT
'\'(100-145]\'','\'(415-inf)\'',DOWN,LEFT,True,True,False,True,DOWN,DOWN
'\'(-inf-55]\'','\'(370-415]\'',DOWN,LEFT,False,True,True,True,LEFT,LEFT
'\'(-inf-55]\'','\'(370-415]\'',DOWN,EQUAL,True,True,False,True,DOWN,DOWN
'\'(-inf-55]\'','\'(370-415]\'',DOWN,EQUAL,True,True,False,True,DOWN,DOWN
'\'(325-370]\'','\'(415-inf)\'',DOWN,LEFT,True,True,False,True,DOWN,DOWN
'\'(235-280]\'','\'(190-235]\'',UP,LEFT,False,True,True,True,LEFT,LEFT
'\'(370-415]\'','\'(235-280]\'',UP,RIGHT,True,True,True,False,UP,UP
'\'(145-190]\'','\'(55-100]\'',DOWN,RIGHT,True,True,False,True,DOWN,DOWN
'\'(-inf-55]\'','\'(415-inf)\'',DOWN,LEFT,False,True,True,True,LEFT,LEFT
'\'(55-100]\'','\'(-inf-55]\'',UP,LEFT,False,True,True,False,UP,UP
'\'(145-190]\'','\'(145-190]\'',DOWN,LEFT,False,True,True,True,LEFT,LEFT
'\'(55-100]\'','\'(-inf-55]\'',UP,LEFT,True,True,True,False,UP,LEFT
'\'(235-280]\'','\'(145-190]\'',DOWN,RIGHT,True,False,True,True,RIGHT,RIGHT
'\'(145-190]\'','\'(235-280]\'',DOWN,LEFT,False,True,True,True,LEFT,LEFT
'\'(-inf-55]\'','\'(190-235]\'',UP,LEFT,True,True,True,False,UP,UP
'\'(415-inf)\'','\'(325-370]\'',DOWN,RIGHT,True,False,True,True,RIGHT,RIGHT
'\'(280-325]\'','\'(235-280]\'',UP,EQUAL,True,True,True,False,UP,UP
'\'(370-415]\'','\'(-inf-55]\'',EQUAL,RIGHT,True,False,True,True,RIGHT,RIGHT
'\'(-inf-55]\'','\'(415-inf)\'',DOWN,LEFT,True,True,False,True,DOWN,DOWN
'\'(145-190]\'','\'(235-280]\'',DOWN,LEFT,False,True,True,True,LEFT,LEFT
'\'(55-100]\'','\'(370-415]\'',DOWN,RIGHT,True,False,True,True,RIGHT,DOWN
'\'(55-100]\'','\'(325-370]\'',EQUAL,LEFT,False,True,True,True,LEFT,LEFT
'\'(415-inf)\'','\'(415-inf)\'',DOWN,RIGHT,True,True,False,True,DOWN,DOWN
'\'(-inf-55]\'','\'(370-415]\'',DOWN,EQUAL,True,True,False,True,DOWN,DOWN
'\'(235-280]\'','\'(370-415]\'',UP,EQUAL,True,True,True,False,UP,UP
'\'(145-190]\'','\'(145-190]\'',DOWN,LEFT,False,True,True,True,LEFT,LEFT
'\'(370-415]\'','\'(235-280]\'',UP,EQUAL,True,True,True,False,UP,UP
'\'(100-145]\'','\'(55-100]\'',UP,LEFT,True,True,False,True,DOWN,DOWN
'\'(100-145]\'','\'(55-100]\'',UP,LEFT,False,False,True,True,RIGHT,RIGHT
'\'(280-325]\'','\'(235-280]\'',UP,EQUAL,True,True,True,False,UP,UP
'\'(235-280]\'','\'(415-inf)\'',DOWN,LEFT,True,True,False,True,DOWN,DOWN
'\'(370-415]\'','\'(-inf-55]\'',UP,RIGHT,True,False,True,True,RIGHT,RIGHT
'\'(-inf-55]\'','\'(325-370]\'',EQUAL,LEFT,False,True,True,True,LEFT,LEFT
'\'(-inf-55]\'','\'(235-280]\'',DOWN,LEFT,False,True,True,True,LEFT,LEFT
'\'(325-370]\'','\'(280-325]\'',UP,EQUAL,True,True,True,False,UP,UP
'\'(-inf-55]\'','\'(100-145]\'',UP,EQUAL,False,True,True,False,UP,UP
'\'(370-415]\'','\'(190-235]\'',UP,LEFT,False,True,True,True,LEFT,LEFT
'\'(55-100]\'','\'(325-370]\'',EQUAL,LEFT,False,True,True,True,LEFT,LEFT
'\'(55-100]\'','\'(325-370]\'',DOWN,LEFT,True,True,False,True,DOWN,DOWN
'\'(55-100]\'','\'(-inf-55]\'',UP,EQUAL,True,True,True,False,UP,UP
'\'(-inf-55]\'','\'(370-415]\'',DOWN,LEFT,False,True,True,True,LEFT,LEFT
'\'(415-inf)\'','\'(55-100]\'',UP,RIGHT,True,True,True,False,UP,UP
'\'(-inf-55]\'','\'(415-inf)\'',DOWN,LEFT,True,True,False,True,DOWN,DOWN
'\'(55-100]\'','\'(370-415]\'',DOWN,LEFT,True,True,False,True,DOWN,DOWN
'\'(55-100]\'','\'(-inf-55]\'',UP,RIGHT,True,True,True,False,UP,UP
'\'(-inf-55]\'','\'(415-inf)\'',DOWN,LEFT,False,True,True,True,LEFT,LEFT
'\'(235-280]\'','\'(190-235]\'',UP,LEFT,False,True,True,True,LEFT,LEFT
'\'(-inf-55]\'','\'(235-280]\'',DOWN,LEFT,True,True,True,False,UP,UP
'\'(415-inf)\'','\'(415-inf)\'',DOWN,RIGHT,True,True,False,True,DOWN,DOWN
'\'(325-370]\'','\'(415-inf)\'',EQUAL,RIGHT,True,True,False,True,DOWN,RIGHT
'\'(-inf-55]\'','\'(325-370]\'',EQUAL,LEFT,False,True,True,True,LEFT,LEFT
'\'(415-inf)\'','\'(-inf-55]\'',DOWN,RIGHT,True,False,False,True,RIGHT,RIGHT
'\'(55-100]\'','\'(-inf-55]\'',UP,EQUAL,True,True,True,False,UP,UP
'\'(415-inf)\'','\'(-inf-55]\'',UP,RIGHT,True,False,True,True,RIGHT,RIGHT
'\'(55-100]\'','\'(325-370]\'',DOWN,LEFT,True,True,False,True,DOWN,DOWN
'\'(-inf-55]\'','\'(235-280]\'',DOWN,LEFT,False,True,True,True,LEFT,LEFT
'\'(415-inf)\'','\'(-inf-55]\'',UP,RIGHT,True,False,True,True,RIGHT,RIGHT
'\'(235-280]\'','\'(415-inf)\'',EQUAL,LEFT,False,True,True,True,LEFT,LEFT
'\'(280-325]\'','\'(-inf-55]\'',UP,RIGHT,True,True,True,False,UP,UP
'\'(235-280]\'','\'(145-190]\'',UP,RIGHT,False,True,True,True,LEFT,LEFT
'\'(280-325]\'','\'(235-280]\'',EQUAL,EQUAL,True,True,False,True,DOWN,DOWN
'\'(190-235]\'','\'(325-370]\'',UP,RIGHT,True,False,True,True,RIGHT,RIGHT
'\'(55-100]\'','\'(325-370]\'',EQUAL,LEFT,False,True,True,True,LEFT,LEFT
'\'(415-inf)\'','\'(280-325]\'',DOWN,RIGHT,True,False,True,True,RIGHT,RIGHT
'\'(-inf-55]\'','\'(415-inf)\'',DOWN,LEFT,True,True,False,True,DOWN,DOWN
'\'(-inf-55]\'','\'(370-415]\'',EQUAL,LEFT,False,True,True,False,LEFT,LEFT
'\'(55-100]\'','\'(370-415]\'',DOWN,RIGHT,True,True,False,True,DOWN,DOWN
'\'(280-325]\'','\'(100-145]\'',UP,RIGHT,True,True,True,False,UP,UP
'\'(415-inf)\'','\'(280-325]\'',DOWN,RIGHT,True,False,True,True,RIGHT,RIGHT
'\'(370-415]\'','\'(190-235]\'',UP,EQUAL,True,True,True,False,UP,UP
'\'(325-370]\'','\'(280-325]\'',UP,RIGHT,True,False,True,True,RIGHT,RIGHT
'\'(-inf-55]\'','\'(370-415]\'',DOWN,LEFT,True,True,True,False,UP,UP
'\'(-inf-55]\'','\'(415-inf)\'',DOWN,LEFT,True,True,False,True,DOWN,DOWN
'\'(280-325]\'','\'(235-280]\'',UP,EQUAL,True,True,True,False,UP,UP
'\'(415-inf)\'','\'(-inf-55]\'',DOWN,RIGHT,True,False,False,True,RIGHT,RIGHT
'\'(325-370]\'','\'(190-235]\'',DOWN,LEFT,True,True,True,False,UP,UP
'\'(325-370]\'','\'(190-235]\'',DOWN,RIGHT,True,True,False,True,DOWN,DOWN
'\'(415-inf)\'','\'(415-inf)\'',DOWN,RIGHT,True,True,False,True,DOWN,DOWN
'\'(-inf-55]\'','\'(190-235]\'',EQUAL,LEFT,False,True,True,True,LEFT,LEFT
'\'(325-370]\'','\'(415-inf)\'',DOWN,LEFT,True,True,False,True,DOWN,DOWN
'\'(-inf-55]\'','\'(370-415]\'',DOWN,LEFT,True,True,True,False,UP,UP
'\'(55-100]\'','\'(-inf-55]\'',UP,LEFT,False,True,True,True,LEFT,LEFT
'\'(-inf-55]\'','\'(190-235]\'',EQUAL,LEFT,False,True,True,True,LEFT,LEFT
'\'(325-370]\'','\'(280-325]\'',DOWN,LEFT,True,True,False,True,DOWN,DOWN
'\'(280-325]\'','\'(235-280]\'',UP,RIGHT,True,False,True,False,RIGHT,RIGHT
'\'(415-inf)\'','\'(415-inf)\'',DOWN,RIGHT,True,False,True,True,RIGHT,RIGHT
'\'(235-280]\'','\'(145-190]\'',DOWN,RIGHT,True,False,True,True,RIGHT,DOWN
'\'(100-145]\'','\'(-inf-55]\'',UP,LEFT,True,True,True,False,UP,UP
'\'(370-415]\'','\'(235-280]\'',UP,EQUAL,True,True,True,False,UP,UP
'\'(55-100]\'','\'(145-190]\'',DOWN,EQUAL,True,True,False,True,DOWN,DOWN
'\'(370-415]\'','\'(235-280]\'',UP,EQUAL,True,True,True,False,UP,UP
'\'(235-280]\'','\'(145-190]\'',UP,RIGHT,False,True,True,True,LEFT,LEFT
'\'(55-100]\'','\'(-inf-55]\'',UP,LEFT,False,True,True,True,LEFT,LEFT
'\'(415-inf)\'','\'(280-325]\'',DOWN,RIGHT,True,False,True,True,RIGHT,RIGHT
'\'(325-370]\'','\'(280-325]\'',UP,RIGHT,True,False,True,True,RIGHT,RIGHT
'\'(55-100]\'','\'(-inf-55]\'',UP,LEFT,True,True,True,False,UP,UP
'\'(55-100]\'','\'(370-415]\'',DOWN,LEFT,True,True,False,True,DOWN,DOWN
'\'(415-inf)\'','\'(145-190]\'',EQUAL,EQUAL,True,True,False,True,DOWN,DOWN
'\'(145-190]\'','\'(55-100]\'',EQUAL,RIGHT,True,False,True,True,RIGHT,RIGHT
'\'(-inf-55]\'','\'(325-370]\'',DOWN,LEFT,True,True,False,True,DOWN,DOWN
'\'(55-100]\'','\'(-inf-55]\'',UP,LEFT,True,True,False,True,DOWN,DOWN
'\'(235-280]\'','\'(145-190]\'',DOWN,RIGHT,True,False,True,True,RIGHT,RIGHT
'\'(415-inf)\'','\'(325-370]\'',DOWN,RIGHT,True,False,True,True,RIGHT,RIGHT
'\'(55-100]\'','\'(145-190]\'',DOWN,EQUAL,True,True,False,True,DOWN,DOWN
'\'(-inf-55]\'','\'(415-inf)\'',DOWN,LEFT,True,False,True,True,RIGHT,RIGHT
'\'(325-370]\'','\'(280-325]\'',UP,RIGHT,True,False,True,True,RIGHT,RIGHT
'\'(145-190]\'','\'(235-280]\'',EQUAL,LEFT,False,True,True,True,LEFT,LEFT
'\'(415-inf)\'','\'(415-inf)\'',DOWN,RIGHT,True,False,True,True,RIGHT,RIGHT
'\'(-inf-55]\'','\'(370-415]\'',DOWN,RIGHT,False,True,True,True,LEFT,DOWN
'\'(370-415]\'','\'(55-100]\'',DOWN,RIGHT,True,False,True,True,RIGHT,RIGHT
'\'(-inf-55]\'','\'(190-235]\'',UP,LEFT,True,True,True,False,UP,UP
'\'(325-370]\'','\'(415-inf)\'',DOWN,LEFT,True,True,False,True,DOWN,DOWN
'\'(190-235]\'','\'(415-inf)\'',DOWN,RIGHT,True,True,True,False,UP,UP
'\'(-inf-55]\'','\'(190-235]\'',UP,LEFT,True,True,True,False,UP,UP
'\'(325-370]\'','\'(280-325]\'',DOWN,LEFT,True,True,False,True,DOWN,DOWN
'\'(145-190]\'','\'(145-190]\'',DOWN,LEFT,False,True,True,True,LEFT,LEFT
'\'(190-235]\'','\'(415-inf)\'',DOWN,RIGHT,True,True,False,True,DOWN,DOWN
'\'(145-190]\'','\'(235-280]\'',EQUAL,LEFT,False,True,True,True,LEFT,LEFT
'\'(190-235]\'','\'(415-inf)\'',DOWN,RIGHT,True,True,True,False,UP,UP
'\'(415-inf)\'','\'(415-inf)\'',DOWN,RIGHT,True,True,True,False,UP,UP
'\'(-inf-55]\'','\'(415-inf)\'',DOWN,LEFT,True,True,False,True,DOWN,DOWN
'\'(55-100]\'','\'(370-415]\'',DOWN,LEFT,True,False,True,True,RIGHT,RIGHT
'\'(145-190]\'','\'(145-190]\'',DOWN,LEFT,False,True,True,True,LEFT,LEFT
'\'(370-415]\'','\'(55-100]\'',UP,RIGHT,True,True,True,False,UP,UP
'\'(145-190]\'','\'(55-100]\'',UP,LEFT,True,True,True,False,UP,UP
'\'(100-145]\'','\'(-inf-55]\'',DOWN,LEFT,True,True,False,False,UP,LEFT
'\'(-inf-55]\'','\'(235-280]\'',DOWN,LEFT,False,True,True,True,LEFT,LEFT
'\'(370-415]\'','\'(55-100]\'',DOWN,EQUAL,True,False,True,True,RIGHT,DOWN
'\'(145-190]\'','\'(145-190]\'',DOWN,LEFT,False,True,True,True,LEFT,LEFT
'\'(145-190]\'','\'(415-inf)\'',DOWN,EQUAL,True,True,False,True,DOWN,DOWN
'\'(-inf-55]\'','\'(325-370]\'',EQUAL,LEFT,False,True,True,True,LEFT,LEFT
'\'(-inf-55]\'','\'(370-415]\'',DOWN,EQUAL,True,True,False,True,DOWN,DOWN
'\'(280-325]\'','\'(325-370]\'',EQUAL,EQUAL,True,True,True,False,UP,UP
'\'(235-280]\'','\'(145-190]\'',DOWN,RIGHT,True,False,True,True,RIGHT,RIGHT
'\'(145-190]\'','\'(235-280]\'',EQUAL,LEFT,False,True,True,True,LEFT,LEFT
'\'(100-145]\'','\'(55-100]\'',UP,LEFT,True,True,False,True,DOWN,DOWN
'\'(415-inf)\'','\'(415-inf)\'',DOWN,RIGHT,True,False,True,True,RIGHT,RIGHT
'\'(145-190]\'','\'(55-100]\'',DOWN,LEFT,False,True,True,True,LEFT,LEFT
'\'(-inf-55]\'','\'(370-415]\'',DOWN,LEFT,False,True,True,True,LEFT,LEFT
'\'(100-145]\'','\'(-inf-55]\'',UP,LEFT,True,False,True,True,RIGHT,UP
'\'(235-280]\'','\'(370-415]\'',UP,RIGHT,True,False,True,True,RIGHT,RIGHT
'\'(415-inf)\'','\'(325-370]\'',DOWN,RIGHT,True,False,True,True,RIGHT,RIGHT
'\'(235-280]\'','\'(415-inf)\'',EQUAL,LEFT,False,True,True,True,LEFT,LEFT
'\'(235-280]\'','\'(145-190]\'',DOWN,RIGHT,True,False,True,True,RIGHT,RIGHT
'\'(100-145]\'','\'(55-100]\'',UP,EQUAL,True,True,True,False,UP,UP
'\'(-inf-55]\'','\'(370-415]\'',DOWN,LEFT,False,True,True,True,LEFT,LEFT
'\'(55-100]\'','\'(-inf-55]\'',UP,RIGHT,True,True,True,False,UP,UP
'\'(190-235]\'','\'(415-inf)\'',DOWN,RIGHT,True,False,True,True,RIGHT,RIGHT
'\'(100-145]\'','\'(55-100]\'',UP,LEFT,True,True,False,True,DOWN,DOWN
'\'(280-325]\'','\'(-inf-55]\'',UP,RIGHT,True,False,True,False,UP,UP
'\'(-inf-55]\'','\'(370-415]\'',DOWN,LEFT,False,True,True,True,LEFT,LEFT
'\'(-inf-55]\'','\'(190-235]\'',UP,LEFT,True,True,True,False,UP,UP
'\'(145-190]\'','\'(55-100]\'',EQUAL,RIGHT,True,True,False,True,DOWN,DOWN
'\'(55-100]\'','\'(325-370]\'',EQUAL,LEFT,False,True,True,True,LEFT,LEFT
'\'(190-235]\'','\'(325-370]\'',UP,RIGHT,True,False,True,True,RIGHT,RIGHT
'\'(-inf-55]\'','\'(325-370]\'',EQUAL,LEFT,False,True,True,True,LEFT,LEFT
'\'(415-inf)\'','\'(415-inf)\'',DOWN,RIGHT,True,False,True,True,RIGHT,RIGHT
'\'(325-370]\'','\'(415-inf)\'',DOWN,RIGHT,False,True,True,True,LEFT,LEFT
'\'(-inf-55]\'','\'(190-235]\'',EQUAL,LEFT,False,True,True,True,LEFT,LEFT
'\'(235-280]\'','\'(145-190]\'',EQUAL,LEFT,True,True,False,True,DOWN,DOWN
'\'(100-145]\'','\'(-inf-55]\'',UP,LEFT,True,True,True,False,UP,UP
'\'(-inf-55]\'','\'(415-inf)\'',DOWN,LEFT,False,True,True,True,LEFT,LEFT
'\'(280-325]\'','\'(-inf-55]\'',UP,RIGHT,True,False,True,False,UP,UP
'\'(235-280]\'','\'(145-190]\'',DOWN,RIGHT,True,True,True,False,UP,RIGHT
'\'(415-inf)\'','\'(415-inf)\'',DOWN,RIGHT,True,True,True,False,UP,UP
'\'(55-100]\'','\'(-inf-55]\'',UP,LEFT,False,True,True,True,LEFT,LEFT
'\'(235-280]\'','\'(145-190]\'',UP,RIGHT,False,True,True,True,LEFT,LEFT
'\'(-inf-55]\'','\'(370-415]\'',EQUAL,LEFT,False,True,True,False,LEFT,LEFT
'\'(-inf-55]\'','\'(415-inf)\'',DOWN,EQUAL,True,True,False,True,DOWN,DOWN
'\'(-inf-55]\'','\'(370-415]\'',DOWN,LEFT,False,True,True,True,LEFT,LEFT
'\'(370-415]\'','\'(55-100]\'',UP,RIGHT,True,True,True,False,UP,UP
'\'(370-415]\'','\'(-inf-55]\'',EQUAL,RIGHT,True,False,True,True,RIGHT,RIGHT
'\'(235-280]\'','\'(370-415]\'',UP,EQUAL,True,True,True,False,UP,UP
'\'(190-235]\'','\'(55-100]\'',DOWN,RIGHT,True,True,True,False,UP,UP
'\'(-inf-55]\'','\'(370-415]\'',DOWN,EQUAL,True,True,False,True,DOWN,DOWN
'\'(55-100]\'','\'(-inf-55]\'',UP,RIGHT,True,True,True,False,UP,UP
'\'(100-145]\'','\'(55-100]\'',UP,LEFT,True,False,True,False,UP,RIGHT
'\'(235-280]\'','\'(415-inf)\'',DOWN,LEFT,True,True,False,True,DOWN,DOWN
'\'(100-145]\'','\'(415-inf)\'',DOWN,LEFT,False,True,True,True,LEFT,LEFT
'\'(415-inf)\'','\'(-inf-55]\'',UP,RIGHT,True,False,True,True,RIGHT,RIGHT
'\'(325-370]\'','\'(190-235]\'',DOWN,RIGHT,True,False,False,True,RIGHT,RIGHT
'\'(100-145]\'','\'(-inf-55]\'',UP,LEFT,True,True,True,False,UP,UP
'\'(235-280]\'','\'(415-inf)\'',DOWN,LEFT,True,True,False,True,DOWN,DOWN
'\'(325-370]\'','\'(280-325]\'',UP,RIGHT,True,False,True,True,RIGHT,RIGHT
'\'(-inf-55]\'','\'(370-415]\'',UP,LEFT,True,False,True,True,RIGHT,RIGHT
'\'(55-100]\'','\'(-inf-55]\'',UP,EQUAL,True,True,True,False,UP,UP
'\'(-inf-55]\'','\'(325-370]\'',DOWN,LEFT,True,True,False,True,DOWN,DOWN
'\'(415-inf)\'','\'(415-inf)\'',DOWN,RIGHT,True,False,True,True,RIGHT,RIGHT
'\'(280-325]\'','\'(100-145]\'',UP,LEFT,True,True,True,False,UP,UP
'\'(190-235]\'','\'(55-100]\'',DOWN,RIGHT,True,True,False,True,DOWN,DOWN
'\'(415-inf)\'','\'(-inf-55]\'',DOWN,RIGHT,True,False,False,True,RIGHT,RIGHT
'\'(55-100]\'','\'(370-415]\'',DOWN,RIGHT,True,True,True,False,UP,UP
'\'(55-100]\'','\'(325-370]\'',EQUAL,LEFT,False,True,True,True,LEFT,LEFT
'\'(370-415]\'','\'(-inf-55]\'',UP,RIGHT,True,False,True,True,RIGHT,RIGHT
'\'(-inf-55]\'','\'(235-280]\'',DOWN,LEFT,True,False,True,True,RIGHT,DOWN
'\'(-inf-55]\'','\'(235-280]\'',DOWN,LEFT,False,True,True,True,LEFT,LEFT
'\'(-inf-55]\'','\'(370-415]\'',DOWN,LEFT,False,True,True,True,LEFT,LEFT
'\'(370-415]\'','\'(55-100]\'',UP,RIGHT,True,True,True,False,UP,UP
'\'(415-inf)\'','\'(415-inf)\'',DOWN,RIGHT,True,True,False,True,DOWN,DOWN
'\'(280-325]\'','\'(235-280]\'',UP,EQUAL,True,True,True,False,UP,UP
'\'(145-190]\'','\'(325-370]\'',DOWN,EQUAL,True,True,False,True,DOWN,DOWN
'\'(235-280]\'','\'(145-190]\'',DOWN,RIGHT,True,False,True,True,RIGHT,RIGHT
'\'(100-145]\'','\'(55-100]\'',UP,RIGHT,True,True,True,False,UP,UP
'\'(145-190]\'','\'(235-280]\'',EQUAL,LEFT,False,True,True,True,LEFT,LEFT
'\'(190-235]\'','\'(415-inf)\'',EQUAL,RIGHT,True,True,True,False,UP,UP
'\'(55-100]\'','\'(325-370]\'',DOWN,LEFT,True,True,False,True,DOWN,DOWN
'\'(-inf-55]\'','\'(370-415]\'',DOWN,LEFT,False,True,True,True,LEFT,LEFT
'\'(325-370]\'','\'(280-325]\'',UP,EQUAL,True,True,True,False,UP,UP
'\'(190-235]\'','\'(55-100]\'',DOWN,RIGHT,True,False,True,True,RIGHT,RIGHT
'\'(325-370]\'','\'(190-235]\'',DOWN,EQUAL,True,True,False,True,DOWN,DOWN
'\'(415-inf)\'','\'(-inf-55]\'',UP,RIGHT,True,False,True,True,RIGHT,RIGHT
'\'(415-inf)\'','\'(280-325]\'',DOWN,RIGHT,True,False,True,True,RIGHT,RIGHT
'\'(100-145]\'','\'(-inf-55]\'',UP,RIGHT,True,True,False,True,DOWN,DOWN
'\'(325-370]\'','\'(190-235]\'',DOWN,EQUAL,True,True,False,True,DOWN,DOWN
'\'(55-100]\'','\'(-inf-55]\'',UP,LEFT,False,True,True,True,LEFT,LEFT
'\'(55-100]\'','\'(325-370]\'',EQUAL,LEFT,False,True,True,True,LEFT,LEFT
'\'(100-145]\'','\'(-inf-55]\'',UP,LEFT,True,True,True,False,UP,UP
'\'(-inf-55]\'','\'(370-415]\'',UP,EQUAL,True,False,True,True,RIGHT,RIGHT
'\'(-inf-55]\'','\'(235-280]\'',DOWN,LEFT,True,True,False,True,DOWN,DOWN
'\'(-inf-55]\'','\'(370-415]\'',UP,LEFT,True,False,True,True,RIGHT,RIGHT
'\'(325-370]\'','\'(190-235]\'',DOWN,LEFT,True,True,True,False,UP,UP
'\'(100-145]\'','\'(55-100]\'',UP,LEFT,True,True,False,True,DOWN,DOWN
'\'(-inf-55]\'','\'(370-415]\'',DOWN,RIGHT,True,True,False,True,DOWN,DOWN
'\'(280-325]\'','\'(235-280]\'',UP,RIGHT,True,False,True,False,RIGHT,RIGHT
'\'(55-100]\'','\'(370-415]\'',DOWN,RIGHT,True,False,True,True,RIGHT,RIGHT
'\'(415-inf)\'','\'(145-190]\'',UP,RIGHT,True,False,True,True,RIGHT,RIGHT
'\'(370-415]\'','\'(145-190]\'',UP,EQUAL,False,True,True,True,LEFT,UP
'\'(190-235]\'','\'(55-100]\'',DOWN,RIGHT,True,False,True,True,RIGHT,RIGHT
'\'(100-145]\'','\'(-inf-55]\'',UP,LEFT,True,True,True,False,UP,UP
'\'(370-415]\'','\'(55-100]\'',UP,RIGHT,True,True,True,False,UP,UP
'\'(100-145]\'','\'(55-100]\'',UP,LEFT,False,True,True,True,LEFT,LEFT
'\'(55-100]\'','\'(325-370]\'',DOWN,LEFT,True,True,False,True,DOWN,DOWN
'\'(235-280]\'','\'(190-235]\'',UP,EQUAL,True,True,True,False,UP,UP
'\'(415-inf)\'','\'(280-325]\'',DOWN,RIGHT,True,False,True,True,RIGHT,RIGHT
'\'(370-415]\'','\'(235-280]\'',UP,RIGHT,True,False,True,True,RIGHT,RIGHT
'\'(325-370]\'','\'(190-235]\'',DOWN,LEFT,True,True,True,False,UP,UP
'\'(55-100]\'','\'(370-415]\'',DOWN,EQUAL,True,True,False,True,DOWN,DOWN
'\'(100-145]\'','\'(55-100]\'',UP,RIGHT,True,True,True,False,UP,RIGHT
'\'(370-415]\'','\'(235-280]\'',UP,RIGHT,False,True,True,True,LEFT,LEFT
'\'(370-415]\'','\'(145-190]\'',DOWN,RIGHT,True,False,True,True,RIGHT,RIGHT
'\'(235-280]\'','\'(145-190]\'',DOWN,RIGHT,True,False,True,True,RIGHT,RIGHT
'\'(190-235]\'','\'(55-100]\'',UP,RIGHT,False,True,True,False,UP,UP
'\'(280-325]\'','\'(100-145]\'',UP,RIGHT,False,True,True,True,LEFT,UP
'\'(280-325]\'','\'(325-370]\'',EQUAL,RIGHT,True,False,True,True,RIGHT,RIGHT
'\'(-inf-55]\'','\'(190-235]\'',UP,LEFT,True,True,True,False,UP,UP
'\'(370-415]\'','\'(-inf-55]\'',UP,RIGHT,True,False,True,True,RIGHT,RIGHT
'\'(280-325]\'','\'(100-145]\'',UP,LEFT,True,True,True,False,UP,UP
'\'(235-280]\'','\'(415-inf)\'',EQUAL,LEFT,False,True,True,True,LEFT,LEFT
'\'(370-415]\'','\'(190-235]\'',UP,EQUAL,True,True,True,False,UP,UP
'\'(55-100]\'','\'(-inf-55]\'',UP,EQUAL,True,True,True,False,UP,UP
'\'(325-370]\'','\'(280-325]\'',UP,LEFT,False,True,True,True,LEFT,LEFT
'\'(370-415]\'','\'(55-100]\'',UP,RIGHT,True,True,True,False,UP,UP
'\'(100-145]\'','\'(55-100]\'',UP,EQUAL,True,True,True,False,UP,UP
'\'(145-190]\'','\'(235-280]\'',EQUAL,LEFT,False,True,True,True,LEFT,LEFT
'\'(-inf-55]\'','\'(100-145]\'',UP,EQUAL,False,True,True,False,UP,UP
'\'(145-190]\'','\'(235-280]\'',EQUAL,EQUAL,True,True,True,False,UP,UP
'\'(145-190]\'','\'(55-100]\'',UP,LEFT,True,True,True,False,UP,UP
'\'(-inf-55]\'','\'(235-280]\'',DOWN,LEFT,False,True,True,True,LEFT,LEFT
'\'(145-190]\'','\'(235-280]\'',EQUAL,LEFT,False,True,True,True,LEFT,LEFT
'\'(55-100]\'','\'(-inf-55]\'',UP,LEFT,True,True,True,False,UP,UP
'\'(415-inf)\'','\'(415-inf)\'',DOWN,RIGHT,True,True,False,True,DOWN,DOWN
'\'(280-325]\'','\'(100-145]\'',UP,RIGHT,True,True,True,False,UP,UP
'\'(370-415]\'','\'(235-280]\'',UP,RIGHT,False,True,True,True,LEFT,LEFT
'\'(145-190]\'','\'(55-100]\'',UP,LEFT,True,True,True,False,UP,UP
'\'(415-inf)\'','\'(415-inf)\'',DOWN,RIGHT,True,False,True,True,RIGHT,RIGHT
'\'(235-280]\'','\'(145-190]\'',UP,RIGHT,True,True,False,True,DOWN,DOWN
'\'(145-190]\'','\'(55-100]\'',EQUAL,RIGHT,True,True,False,True,DOWN,RIGHT
'\'(-inf-55]\'','\'(100-145]\'',UP,LEFT,True,True,False,True,DOWN,DOWN
'\'(370-415]\'','\'(55-100]\'',UP,RIGHT,True,True,True,False,UP,UP
'\'(190-235]\'','\'(415-inf)\'',UP,RIGHT,False,True,True,True,LEFT,LEFT
'\'(-inf-55]\'','\'(235-280]\'',DOWN,LEFT,True,False,True,True,RIGHT,RIGHT
'\'(415-inf)\'','\'(-inf-55]\'',UP,EQUAL,True,True,True,False,UP,UP
'\'(55-100]\'','\'(370-415]\'',DOWN,RIGHT,True,True,True,False,UP,UP
'\'(55-100]\'','\'(-inf-55]\'',UP,LEFT,True,True,True,False,UP,UP
'\'(55-100]\'','\'(-inf-55]\'',UP,EQUAL,False,True,True,True,LEFT,UP
'\'(415-inf)\'','\'(-inf-55]\'',DOWN,RIGHT,True,False,False,True,RIGHT,RIGHT
'\'(145-190]\'','\'(145-190]\'',DOWN,EQUAL,False,True,True,True,LEFT,LEFT
'\'(190-235]\'','\'(55-100]\'',DOWN,RIGHT,True,True,False,True,DOWN,DOWN
'\'(55-100]\'','\'(325-370]\'',EQUAL,LEFT,False,True,True,True,LEFT,LEFT
'\'(145-190]\'','\'(415-inf)\'',DOWN,EQUAL,True,True,False,True,DOWN,LEFT
'\'(325-370]\'','\'(190-235]\'',DOWN,EQUAL,True,True,False,True,DOWN,DOWN
'\'(235-280]\'','\'(145-190]\'',EQUAL,EQUAL,True,True,True,False,UP,UP
'\'(235-280]\'','\'(370-415]\'',UP,RIGHT,True,False,True,True,RIGHT,RIGHT
'\'(100-145]\'','\'(55-100]\'',UP,RIGHT,True,True,True,False,UP,UP
'\'(145-190]\'','\'(235-280]\'',EQUAL,LEFT,True,True,False,True,DOWN,LEFT
'\'(55-100]\'','\'(325-370]\'',EQUAL,LEFT,False,True,True,True,LEFT,LEFT
'\'(55-100]\'','\'(-inf-55]\'',UP,LEFT,True,True,True,False,UP,UP
'\'(-inf-55]\'','\'(100-145]\'',DOWN,LEFT,True,True,False,True,DOWN,DOWN
'\'(370-415]\'','\'(55-100]\'',UP,RIGHT,True,True,True,False,UP,UP
'\'(415-inf)\'','\'(-inf-55]\'',UP,RIGHT,True,False,True,True,RIGHT,RIGHT
'\'(100-145]\'','\'(-inf-55]\'',UP,RIGHT,True,False,True,True,RIGHT,RIGHT
'\'(280-325]\'','\'(235-280]\'',UP,RIGHT,True,False,True,False,RIGHT,RIGHT
'\'(190-235]\'','\'(415-inf)\'',DOWN,RIGHT,True,True,True,False,UP,UP
'\'(415-inf)\'','\'(280-325]\'',DOWN,RIGHT,True,False,True,True,RIGHT,RIGHT
'\'(100-145]\'','\'(-inf-55]\'',UP,LEFT,True,True,True,False,UP,UP
'\'(-inf-55]\'','\'(370-415]\'',DOWN,LEFT,True,True,True,False,UP,LEFT
'\'(280-325]\'','\'(235-280]\'',UP,RIGHT,True,False,True,False,RIGHT,RIGHT
'\'(325-370]\'','\'(280-325]\'',DOWN,LEFT,True,True,False,True,DOWN,DOWN
'\'(415-inf)\'','\'(280-325]\'',DOWN,RIGHT,True,False,True,True,RIGHT,RIGHT
'\'(100-145]\'','\'(415-inf)\'',DOWN,LEFT,True,True,False,True,DOWN,DOWN
'\'(415-inf)\'','\'(280-325]\'',DOWN,RIGHT,True,False,True,True,RIGHT,RIGHT
'\'(145-190]\'','\'(235-280]\'',EQUAL,LEFT,False,True,True,True,LEFT,LEFT
'\'(370-415]\'','\'(235-280]\'',UP,RIGHT,True,False,True,True,RIGHT,RIGHT
'\'(-inf-55]\'','\'(325-370]\'',DOWN,LEFT,True,True,False,True,DOWN,DOWN
'\'(190-235]\'','\'(55-100]\'',EQUAL,RIGHT,True,False,True,True,RIGHT,RIGHT
'\'(235-280]\'','\'(145-190]\'',EQUAL,RIGHT,True,True,True,False,UP,UP
'\'(415-inf)\'','\'(-inf-55]\'',EQUAL,EQUAL,True,True,True,False,UP,UP
'\'(235-280]\'','\'(145-190]\'',DOWN,RIGHT,True,False,True,True,RIGHT,RIGHT
'\'(55-100]\'','\'(-inf-55]\'',UP,LEFT,False,True,True,True,LEFT,LEFT
'\'(145-190]\'','\'(235-280]\'',EQUAL,LEFT,False,True,True,True,LEFT,LEFT
'\'(55-100]\'','\'(370-415]\'',DOWN,RIGHT,True,True,False,True,DOWN,RIGHT
'\'(145-190]\'','\'(415-inf)\'',DOWN,RIGHT,True,True,False,True,DOWN,DOWN
'\'(415-inf)\'','\'(-inf-55]\'',UP,RIGHT,True,False,True,True,RIGHT,RIGHT
'\'(190-235]\'','\'(415-inf)\'',DOWN,RIGHT,True,False,True,True,RIGHT,RIGHT
'\'(415-inf)\'','\'(-inf-55]\'',UP,EQUAL,True,True,True,False,UP,UP
'\'(100-145]\'','\'(-inf-55]\'',UP,RIGHT,True,False,True,True,RIGHT,RIGHT
'\'(-inf-55]\'','\'(235-280]\'',DOWN,LEFT,False,True,True,True,LEFT,LEFT
'\'(415-inf)\'','\'(415-inf)\'',DOWN,RIGHT,True,False,True,True,RIGHT,RIGHT
'\'(235-280]\'','\'(145-190]\'',DOWN,RIGHT,True,True,False,True,DOWN,DOWN
'\'(325-370]\'','\'(190-235]\'',DOWN,LEFT,False,True,True,True,LEFT,LEFT
'\'(-inf-55]\'','\'(325-370]\'',EQUAL,LEFT,False,True,True,True,LEFT,LEFT
'\'(415-inf)\'','\'(55-100]\'',EQUAL,RIGHT,True,False,True,True,RIGHT,RIGHT
'\'(55-100]\'','\'(-inf-55]\'',UP,LEFT,False,True,True,True,LEFT,LEFT
'\'(-inf-55]\'','\'(370-415]\'',EQUAL,LEFT,False,True,True,False,LEFT,LEFT
'\'(190-235]\'','\'(55-100]\'',EQUAL,RIGHT,True,False,True,True,RIGHT,RIGHT
'\'(-inf-55]\'','\'(235-280]\'',DOWN,LEFT,False,True,True,True,LEFT,LEFT
'\'(-inf-55]\'','\'(235-280]\'',UP,LEFT,True,True,True,False,UP,UP
'\'(235-280]\'','\'(145-190]\'',UP,RIGHT,False,True,True,True,LEFT,LEFT
'\'(370-415]\'','\'(190-235]\'',UP,EQUAL,True,True,True,False,UP,UP
'\'(370-415]\'','\'(-inf-55]\'',UP,RIGHT,True,True,False,True,DOWN,RIGHT
'\'(415-inf)\'','\'(-inf-55]\'',UP,RIGHT,True,True,True,False,UP,UP
'\'(325-370]\'','\'(190-235]\'',DOWN,EQUAL,True,True,False,True,DOWN,DOWN
'\'(325-370]\'','\'(415-inf)\'',DOWN,RIGHT,False,True,True,True,LEFT,LEFT
'\'(145-190]\'','\'(235-280]\'',EQUAL,LEFT,False,True,True,True,LEFT,LEFT
'\'(235-280]\'','\'(370-415]\'',UP,RIGHT,True,False,True,True,RIGHT,RIGHT
'\'(55-100]\'','\'(-inf-55]\'',UP,LEFT,True,True,True,False,UP,UP
'\'(100-145]\'','\'(55-100]\'',UP,LEFT,False,True,True,True,LEFT,LEFT
'\'(100-145]\'','\'(-inf-55]\'',UP,RIGHT,True,True,False,True,DOWN,DOWN
'\'(415-inf)\'','\'(-inf-55]\'',UP,RIGHT,True,False,True,True,RIGHT,RIGHT
'\'(55-100]\'','\'(-inf-55]\'',UP,RIGHT,True,True,True,False,UP,UP
'\'(370-415]\'','\'(235-280]\'',UP,RIGHT,True,True,True,False,UP,UP
'\'(190-235]\'','\'(415-inf)\'',DOWN,RIGHT,True,True,True,False,UP,UP
'\'(100-145]\'','\'(55-100]\'',UP,LEFT,False,True,True,True,LEFT,LEFT
'\'(415-inf)\'','\'(415-inf)\'',DOWN,RIGHT,True,False,True,True,RIGHT,RIGHT
'\'(415-inf)\'','\'(235-280]\'',DOWN,EQUAL,True,True,False,True,DOWN,DOWN
'\'(325-370]\'','\'(190-235]\'',DOWN,RIGHT,True,False,False,True,RIGHT,RIGHT
'\'(415-inf)\'','\'(235-280]\'',DOWN,RIGHT,True,False,True,True,RIGHT,RIGHT
'\'(370-415]\'','\'(-inf-55]\'',UP,RIGHT,True,True,True,False,UP,UP
'\'(-inf-55]\'','\'(370-415]\'',DOWN,EQUAL,True,True,False,True,DOWN,DOWN
'\'(280-325]\'','\'(-inf-55]\'',UP,EQUAL,True,True,True,False,UP,UP
'\'(-inf-55]\'','\'(370-415]\'',EQUAL,EQUAL,True,True,True,False,UP,UP
'\'(280-325]\'','\'(-inf-55]\'',UP,RIGHT,True,False,True,True,RIGHT,RIGHT
'\'(100-145]\'','\'(-inf-55]\'',EQUAL,LEFT,True,True,False,True,DOWN,LEFT
'\'(415-inf)\'','\'(145-190]\'',UP,RIGHT,True,False,True,True,RIGHT,RIGHT
'\'(55-100]\'','\'(-inf-55]\'',UP,RIGHT,True,True,True,False,UP,UP
'\'(145-190]\'','\'(55-100]\'',DOWN,RIGHT,True,True,False,True,DOWN,DOWN
'\'(280-325]\'','\'(235-280]\'',UP,EQUAL,True,True,True,False,UP,UP
'\'(-inf-55]\'','\'(100-145]\'',DOWN,LEFT,False,True,True,True,LEFT,LEFT
'\'(145-190]\'','\'(55-100]\'',UP,RIGHT,True,True,False,True,DOWN,RIGHT
'\'(145-190]\'','\'(145-190]\'',DOWN,RIGHT,True,True,False,True,DOWN,DOWN
'\'(370-415]\'','\'(-inf-55]\'',DOWN,RIGHT,True,False,True,True,RIGHT,RIGHT
'\'(100-145]\'','\'(-inf-55]\'',UP,LEFT,True,True,True,False,UP,UP
'\'(145-190]\'','\'(235-280]\'',EQUAL,LEFT,False,True,True,True,LEFT,LEFT
'\'(145-190]\'','\'(415-inf)\'',DOWN,RIGHT,True,True,False,True,DOWN,DOWN
'\'(-inf-55]\'','\'(235-280]\'',UP,LEFT,True,False,True,True,RIGHT,RIGHT
'\'(145-190]\'','\'(235-280]\'',EQUAL,LEFT,False,True,True,True,LEFT,LEFT
'\'(145-190]\'','\'(235-280]\'',DOWN,LEFT,False,True,True,True,LEFT,DOWN
'\'(235-280]\'','\'(145-190]\'',DOWN,LEFT,True,True,False,True,DOWN,DOWN
'\'(100-145]\'','\'(55-100]\'',UP,LEFT,True,True,False,True,DOWN,DOWN
'\'(-inf-55]\'','\'(235-280]\'',DOWN,LEFT,False,True,True,True,LEFT,LEFT
'\'(370-415]\'','\'(190-235]\'',UP,EQUAL,True,True,True,False,UP,UP
'\'(55-100]\'','\'(-inf-55]\'',UP,LEFT,True,True,False,True,DOWN,DOWN
'\'(235-280]\'','\'(145-190]\'',DOWN,RIGHT,True,False,True,True,RIGHT,RIGHT
'\'(-inf-55]\'','\'(370-415]\'',DOWN,EQUAL,True,True,False,True,DOWN,DOWN
'\'(325-370]\'','\'(415-inf)\'',DOWN,LEFT,True,True,False,True,DOWN,DOWN
'\'(235-280]\'','\'(415-inf)\'',EQUAL,LEFT,False,True,True,True,LEFT,LEFT
'\'(145-190]\'','\'(370-415]\'',UP,LEFT,True,True,False,True,DOWN,LEFT
'\'(370-415]\'','\'(-inf-55]\'',UP,RIGHT,True,True,True,False,UP,UP
'\'(415-inf)\'','\'(145-190]\'',UP,RIGHT,True,False,True,True,RIGHT,RIGHT
'\'(-inf-55]\'','\'(325-370]\'',EQUAL,LEFT,False,True,True,True,LEFT,LEFT
'\'(325-370]\'','\'(280-325]\'',EQUAL,EQUAL,True,False,True,True,RIGHT,RIGHT
'\'(415-inf)\'','\'(145-190]\'',UP,RIGHT,True,False,True,True,RIGHT,RIGHT
'\'(-inf-55]\'','\'(100-145]\'',UP,LEFT,True,True,False,True,DOWN,DOWN
'\'(190-235]\'','\'(415-inf)\'',UP,RIGHT,False,True,True,True,LEFT,LEFT
'\'(-inf-55]\'','\'(190-235]\'',EQUAL,LEFT,False,True,True,True,LEFT,LEFT
'\'(100-145]\'','\'(-inf-55]\'',EQUAL,LEFT,True,True,True,False,UP,UP
'\'(-inf-55]\'','\'(235-280]\'',UP,LEFT,False,True,True,True,LEFT,LEFT
'\'(280-325]\'','\'(-inf-55]\'',UP,EQUAL,True,True,True,False,UP,UP
'\'(235-280]\'','\'(145-190]\'',DOWN,RIGHT,True,True,False,True,DOWN,DOWN
'\'(55-100]\'','\'(370-415]\'',DOWN,LEFT,False,True,True,True,LEFT,LEFT
'\'(370-415]\'','\'(145-190]\'',DOWN,RIGHT,True,False,True,True,RIGHT,RIGHT
'\'(145-190]\'','\'(145-190]\'',DOWN,RIGHT,True,True,False,True,DOWN,DOWN
'\'(280-325]\'','\'(325-370]\'',EQUAL,RIGHT,True,False,True,True,RIGHT,RIGHT
'\'(415-inf)\'','\'(415-inf)\'',DOWN,RIGHT,True,True,False,True,DOWN,DOWN
'\'(145-190]\'','\'(370-415]\'',DOWN,RIGHT,True,False,True,True,RIGHT,RIGHT
'\'(280-325]\'','\'(100-145]\'',UP,LEFT,True,True,True,False,UP,UP
'\'(190-235]\'','\'(415-inf)\'',DOWN,RIGHT,True,False,True,True,RIGHT,RIGHT
'\'(55-100]\'','\'(325-370]\'',DOWN,LEFT,True,True,False,True,DOWN,DOWN
'\'(325-370]\'','\'(280-325]\'',DOWN,LEFT,True,True,False,True,DOWN,DOWN
'\'(-inf-55]\'','\'(370-415]\'',UP,LEFT,True,False,True,True,RIGHT,RIGHT
'\'(-inf-55]\'','\'(325-370]\'',EQUAL,LEFT,False,True,True,True,LEFT,LEFT
'\'(415-inf)\'','\'(415-inf)\'',DOWN,RIGHT,True,False,True,True,RIGHT,RIGHT
'\'(280-325]\'','\'(-inf-55]\'',UP,RIGHT,True,False,True,False,UP,UP
'\'(-inf-55]\'','\'(235-280]\'',DOWN,LEFT,True,True,False,True,DOWN,DOWN
'\'(-inf-55]\'','\'(415-inf)\'',DOWN,EQUAL,True,True,False,True,DOWN,DOWN
'\'(-inf-55]\'','\'(235-280]\'',DOWN,LEFT,True,True,False,True,DOWN,DOWN
'\'(280-325]\'','\'(100-145]\'',EQUAL,RIGHT,True,True,True,False,UP,UP
'\'(280-325]\'','\'(235-280]\'',UP,RIGHT,True,False,True,False,RIGHT,RIGHT
'\'(-inf-55]\'','\'(235-280]\'',DOWN,LEFT,True,True,False,True,DOWN,DOWN
'\'(145-190]\'','\'(55-100]\'',EQUAL,RIGHT,True,False,True,True,RIGHT,RIGHT
'\'(370-415]\'','\'(145-190]\'',DOWN,RIGHT,True,False,True,True,RIGHT,RIGHT
'\'(325-370]\'','\'(190-235]\'',DOWN,LEFT,False,True,True,True,LEFT,LEFT
'\'(415-inf)\'','\'(-inf-55]\'',DOWN,EQUAL,True,True,False,True,DOWN,DOWN
'\'(325-370]\'','\'(280-325]\'',UP,RIGHT,True,False,True,True,RIGHT,RIGHT
'\'(100-145]\'','\'(55-100]\'',UP,RIGHT,True,True,True,False,UP,RIGHT
'\'(325-370]\'','\'(190-235]\'',DOWN,LEFT,True,True,True,False,UP,UP
'\'(280-325]\'','\'(100-145]\'',UP,LEFT,True,True,True,False,UP,UP
'\'(-inf-55]\'','\'(100-145]\'',UP,LEFT,True,True,False,True,DOWN,DOWN
'\'(-inf-55]\'','\'(370-415]\'',DOWN,LEFT,False,True,True,True,LEFT,LEFT
'\'(280-325]\'','\'(235-280]\'',UP,EQUAL,True,True,True,False,UP,UP
'\'(190-235]\'','\'(415-inf)\'',EQUAL,RIGHT,True,True,False,True,DOWN,RIGHT
'\'(415-inf)\'','\'(325-370]\'',DOWN,RIGHT,True,False,True,True,RIGHT,RIGHT
'\'(190-235]\'','\'(415-inf)\'',DOWN,RIGHT,True,False,True,True,RIGHT,RIGHT
'\'(-inf-55]\'','\'(235-280]\'',UP,LEFT,True,True,True,False,UP,UP
'\'(235-280]\'','\'(100-145]\'',DOWN,RIGHT,True,False,True,True,RIGHT,RIGHT
'\'(145-190]\'','\'(370-415]\'',DOWN,RIGHT,True,False,True,True,RIGHT,RIGHT
'\'(415-inf)\'','\'(145-190]\'',UP,EQUAL,True,True,True,False,UP,UP
'\'(145-190]\'','\'(415-inf)\'',DOWN,LEFT,False,True,True,True,LEFT,LEFT
'\'(280-325]\'','\'(235-280]\'',UP,RIGHT,True,False,True,False,RIGHT,RIGHT
'\'(415-inf)\'','\'(415-inf)\'',DOWN,RIGHT,True,True,True,False,UP,RIGHT
'\'(325-370]\'','\'(190-235]\'',DOWN,RIGHT,True,False,False,True,RIGHT,RIGHT
'\'(55-100]\'','\'(370-415]\'',DOWN,EQUAL,True,True,False,True,DOWN,DOWN
'\'(145-190]\'','\'(145-190]\'',DOWN,RIGHT,True,True,False,True,DOWN,DOWN
'\'(235-280]\'','\'(370-415]\'',UP,RIGHT,True,False,True,True,RIGHT,RIGHT
'\'(145-190]\'','\'(55-100]\'',DOWN,LEFT,False,True,True,True,LEFT,LEFT
'\'(370-415]\'','\'(55-100]\'',DOWN,RIGHT,True,False,True,True,RIGHT,RIGHT
'\'(100-145]\'','\'(415-inf)\'',DOWN,RIGHT,True,True,False,True,DOWN,DOWN
'\'(-inf-55]\'','\'(415-inf)\'',DOWN,EQUAL,True,True,False,True,DOWN,DOWN
'\'(145-190]\'','\'(145-190]\'',DOWN,LEFT,False,True,True,True,LEFT,LEFT
'\'(325-370]\'','\'(325-370]\'',DOWN,EQUAL,True,True,False,True,DOWN,DOWN
'\'(55-100]\'','\'(-inf-55]\'',UP,RIGHT,True,True,True,False,UP,UP
'\'(235-280]\'','\'(145-190]\'',DOWN,RIGHT,True,False,True,True,RIGHT,RIGHT
'\'(370-415]\'','\'(190-235]\'',UP,EQUAL,True,True,True,False,UP,UP
'\'(145-190]\'','\'(415-inf)\'',DOWN,RIGHT,True,True,False,True,DOWN,DOWN
'\'(145-190]\'','\'(415-inf)\'',DOWN,LEFT,False,True,True,True,LEFT,LEFT
'\'(280-325]\'','\'(100-145]\'',DOWN,RIGHT,True,True,True,False,UP,UP
'\'(145-190]\'','\'(55-100]\'',UP,EQUAL,True,True,True,False,UP,UP
'\'(145-190]\'','\'(55-100]\'',UP,LEFT,True,True,True,False,UP,UP
'\'(55-100]\'','\'(370-415]\'',DOWN,LEFT,False,True,True,True,LEFT,LEFT
'\'(-inf-55]\'','\'(235-280]\'',UP,LEFT,True,True,True,False,UP,UP
'\'(100-145]\'','\'(-inf-55]\'',DOWN,LEFT,False,True,False,True,LEFT,LEFT
'\'(100-145]\'','\'(-inf-55]\'',UP,EQUAL,True,False,True,True,RIGHT,UP
'\'(-inf-55]\'','\'(325-370]\'',EQUAL,LEFT,False,True,True,True,LEFT,LEFT
'\'(235-280]\'','\'(145-190]\'',UP,RIGHT,True,True,True,False,UP,UP
'\'(370-415]\'','\'(55-100]\'',DOWN,RIGHT,True,False,True,True,RIGHT,RIGHT
'\'(145-190]\'','\'(370-415]\'',DOWN,LEFT,True,True,False,True,DOWN,DOWN
'\'(325-370]\'','\'(190-235]\'',DOWN,RIGHT,True,True,False,True,DOWN,DOWN
'\'(280-325]\'','\'(100-145]\'',UP,RIGHT,True,True,True,False,UP,RIGHT
'\'(280-325]\'','\'(235-280]\'',UP,RIGHT,True,False,True,False,RIGHT,RIGHT
'\'(-inf-55]\'','\'(370-415]\'',DOWN,LEFT,False,True,True,True,LEFT,LEFT
'\'(190-235]\'','\'(325-370]\'',UP,RIGHT,True,False,True,True,RIGHT,RIGHT
'\'(415-inf)\'','\'(55-100]\'',EQUAL,RIGHT,True,False,True,True,RIGHT,RIGHT
'\'(235-280]\'','\'(145-190]\'',EQUAL,RIGHT,True,False,True,True,RIGHT,RIGHT
'\'(280-325]\'','\'(100-145]\'',DOWN,RIGHT,True,True,True,False,UP,UP
'\'(235-280]\'','\'(145-190]\'',UP,RIGHT,True,True,True,False,UP,UP
'\'(145-190]\'','\'(145-190]\'',DOWN,LEFT,False,True,True,True,LEFT,LEFT
'\'(-inf-55]\'','\'(190-235]\'',EQUAL,LEFT,False,True,True,True,LEFT,LEFT
'\'(100-145]\'','\'(55-100]\'',UP,EQUAL,True,True,True,False,UP,UP
'\'(-inf-55]\'','\'(370-415]\'',EQUAL,RIGHT,True,True,False,True,DOWN,DOWN
'\'(-inf-55]\'','\'(235-280]\'',DOWN,LEFT,True,True,False,True,DOWN,DOWN
'\'(-inf-55]\'','\'(415-inf)\'',DOWN,EQUAL,True,True,False,True,DOWN,DOWN
'\'(55-100]\'','\'(370-415]\'',DOWN,EQUAL,True,True,False,True,DOWN,DOWN
'\'(-inf-55]\'','\'(325-370]\'',DOWN,LEFT,True,True,False,True,DOWN,DOWN
'\'(415-inf)\'','\'(-inf-55]\'',UP,RIGHT,True,True,True,False,UP,UP
'\'(55-100]\'','\'(-inf-55]\'',UP,RIGHT,True,True,True,False,UP,UP
'\'(-inf-55]\'','\'(190-235]\'',EQUAL,LEFT,False,True,True,True,LEFT,LEFT
'\'(235-280]\'','\'(145-190]\'',DOWN,RIGHT,True,True,False,True,DOWN,DOWN
'\'(-inf-55]\'','\'(370-415]\'',DOWN,RIGHT,True,True,False,True,DOWN,DOWN
'\'(-inf-55]\'','\'(190-235]\'',EQUAL,LEFT,False,True,True,True,LEFT,LEFT
'\'(415-inf)\'','\'(280-325]\'',DOWN,RIGHT,True,False,True,True,RIGHT,RIGHT
'\'(-inf-55]\'','\'(235-280]\'',UP,LEFT,False,True,True,True,LEFT,LEFT
'\'(370-415]\'','\'(-inf-55]\'',UP,RIGHT,True,True,True,False,UP,UP
'\'(145-190]\'','\'(325-370]\'',DOWN,EQUAL,True,True,False,True,DOWN,DOWN
'\'(55-100]\'','\'(325-370]\'',DOWN,LEFT,True,False,True,True,RIGHT,RIGHT
'\'(55-100]\'','\'(370-415]\'',DOWN,LEFT,False,True,True,True,LEFT,LEFT
'\'(-inf-55]\'','\'(235-280]\'',DOWN,LEFT,False,True,True,True,LEFT,LEFT
'\'(55-100]\'','\'(-inf-55]\'',DOWN,EQUAL,True,False,False,True,RIGHT,RIGHT
'\'(370-415]\'','\'(55-100]\'',UP,RIGHT,True,True,True,False,UP,UP
'\'(415-inf)\'','\'(415-inf)\'',DOWN,RIGHT,True,False,True,True,RIGHT,RIGHT
'\'(235-280]\'','\'(145-190]\'',DOWN,RIGHT,True,False,True,True,RIGHT,RIGHT
'\'(145-190]\'','\'(415-inf)\'',DOWN,RIGHT,True,True,False,True,DOWN,DOWN
'\'(415-inf)\'','\'(415-inf)\'',DOWN,RIGHT,True,False,True,True,RIGHT,RIGHT
'\'(280-325]\'','\'(100-145]\'',DOWN,RIGHT,True,True,True,False,UP,UP
'\'(100-145]\'','\'(-inf-55]\'',DOWN,LEFT,True,True,True,False,UP,LEFT
'\'(190-235]\'','\'(415-inf)\'',UP,RIGHT,False,True,True,True,LEFT,LEFT
'\'(190-235]\'','\'(55-100]\'',EQUAL,RIGHT,True,False,True,True,RIGHT,RIGHT
'\'(55-100]\'','\'(145-190]\'',DOWN,LEFT,True,True,True,False,UP,UP
'\'(415-inf)\'','\'(415-inf)\'',DOWN,RIGHT,True,False,True,True,RIGHT,RIGHT
'\'(415-inf)\'','\'(415-inf)\'',DOWN,RIGHT,True,False,True,True,RIGHT,RIGHT
'\'(145-190]\'','\'(415-inf)\'',DOWN,RIGHT,True,True,False,True,DOWN,DOWN
'\'(-inf-55]\'','\'(235-280]\'',DOWN,LEFT,True,True,False,True,DOWN,DOWN
'\'(-inf-55]\'','\'(235-280]\'',EQUAL,LEFT,False,True,True,True,LEFT,LEFT
'\'(370-415]\'','\'(145-190]\'',UP,LEFT,True,True,False,True,DOWN,DOWN
'\'(235-280]\'','\'(370-415]\'',UP,EQUAL,True,True,True,False,UP,UP
'\'(55-100]\'','\'(-inf-55]\'',UP,EQUAL,True,True,True,False,UP,UP
'\'(55-100]\'','\'(370-415]\'',DOWN,RIGHT,True,True,True,False,UP,RIGHT
'\'(145-190]\'','\'(55-100]\'',DOWN,EQUAL,False,True,True,True,LEFT,LEFT
'\'(325-370]\'','\'(190-235]\'',UP,LEFT,True,False,True,True,RIGHT,UP
'\'(325-370]\'','\'(280-325]\'',UP,RIGHT,True,False,True,True,RIGHT,RIGHT
'\'(-inf-55]\'','\'(370-415]\'',EQUAL,LEFT,False,True,True,False,LEFT,LEFT
'\'(55-100]\'','\'(325-370]\'',DOWN,LEFT,True,True,False,True,DOWN,DOWN
'\'(-inf-55]\'','\'(370-415]\'',UP,LEFT,True,False,True,True,RIGHT,RIGHT
'\'(235-280]\'','\'(190-235]\'',UP,LEFT,True,True,False,True,DOWN,DOWN
'\'(190-235]\'','\'(415-inf)\'',EQUAL,LEFT,True,True,False,True,DOWN,DOWN
'\'(-inf-55]\'','\'(415-inf)\'',DOWN,LEFT,False,True,True,True,LEFT,LEFT
'\'(325-370]\'','\'(280-325]\'',DOWN,LEFT,True,True,False,True,DOWN,DOWN
'\'(190-235]\'','\'(325-370]\'',UP,RIGHT,True,False,True,True,RIGHT,RIGHT
'\'(325-370]\'','\'(190-235]\'',UP,LEFT,True,False,True,True,RIGHT,RIGHT
'\'(190-235]\'','\'(415-inf)\'',DOWN,RIGHT,True,False,True,True,RIGHT,RIGHT
'\'(415-inf)\'','\'(145-190]\'',UP,RIGHT,True,False,True,True,RIGHT,RIGHT
'\'(55-100]\'','\'(370-415]\'',DOWN,LEFT,True,False,True,True,RIGHT,RIGHT
'\'(280-325]\'','\'(235-280]\'',UP,RIGHT,True,False,True,False,RIGHT,RIGHT
'\'(280-325]\'','\'(325-370]\'',UP,RIGHT,True,True,True,False,UP,UP
'\'(415-inf)\'','\'(415-inf)\'',DOWN,RIGHT,True,True,False,True,DOWN,DOWN
'\'(415-inf)\'','\'(55-100]\'',UP,RIGHT,True,True,True,False,UP,UP
'\'(145-190]\'','\'(55-100]\'',DOWN,RIGHT,False,True,True,True,LEFT,LEFT
'\'(145-190]\'','\'(415-inf)\'',DOWN,LEFT,False,True,True,True,LEFT,LEFT
'\'(145-190]\'','\'(415-inf)\'',DOWN,LEFT,True,True,True,False,UP,UP
'\'(325-370]\'','\'(280-325]\'',DOWN,LEFT,True,True,False,True,DOWN,DOWN
'\'(415-inf)\'','\'(145-190]\'',UP,RIGHT,True,False,True,True,RIGHT,RIGHT
'\'(370-415]\'','\'(55-100]\'',DOWN,EQUAL,True,True,False,True,DOWN,DOWN
'\'(-inf-55]\'','\'(235-280]\'',UP,LEFT,True,True,False,True,DOWN,LEFT
'\'(280-325]\'','\'(235-280]\'',UP,RIGHT,True,False,True,False,RIGHT,RIGHT
'\'(-inf-55]\'','\'(100-145]\'',DOWN,LEFT,False,True,True,True,LEFT,DOWN
'\'(235-280]\'','\'(190-235]\'',UP,LEFT,False,True,True,True,LEFT,LEFT
'\'(55-100]\'','\'(-inf-55]\'',DOWN,RIGHT,True,False,False,True,RIGHT,RIGHT
'\'(145-190]\'','\'(235-280]\'',UP,LEFT,True,True,True,False,UP,UP
'\'(-inf-55]\'','\'(415-inf)\'',DOWN,EQUAL,True,True,False,True,DOWN,DOWN
'\'(235-280]\'','\'(145-190]\'',DOWN,RIGHT,True,False,True,True,RIGHT,RIGHT
'\'(325-370]\'','\'(280-325]\'',UP,RIGHT,True,False,True,True,RIGHT,RIGHT
'\'(370-415]\'','\'(235-280]\'',UP,LEFT,False,True,True,True,LEFT,LEFT
'\'(-inf-55]\'','\'(415-inf)\'',DOWN,LEFT,False,True,True,True,LEFT,LEFT
'\'(145-190]\'','\'(415-inf)\'',DOWN,LEFT,False,True,True,True,LEFT,LEFT
'\'(325-370]\'','\'(325-370]\'',DOWN,EQUAL,True,True,False,True,DOWN,DOWN
'\'(415-inf)\'','\'(415-inf)\'',DOWN,RIGHT,True,True,False,True,DOWN,DOWN
'\'(145-190]\'','\'(325-370]\'',DOWN,EQUAL,True,True,False,True,DOWN,DOWN
'\'(280-325]\'','\'(100-145]\'',EQUAL,EQUAL,False,True,True,True,LEFT,LEFT
'\'(325-370]\'','\'(415-inf)\'',DOWN,LEFT,True,True,False,True,DOWN,DOWN
'\'(415-inf)\'','\'(415-inf)\'',DOWN,RIGHT,True,True,False,True,DOWN,DOWN
'\'(325-370]\'','\'(280-325]\'',DOWN,LEFT,True,True,False,True,DOWN,DOWN
'\'(-inf-55]\'','\'(370-415]\'',DOWN,LEFT,False,True,True,True,LEFT,LEFT
'\'(415-inf)\'','\'(415-inf)\'',DOWN,RIGHT,True,True,False,True,DOWN,DOWN
'\'(235-280]\'','\'(370-415]\'',UP,RIGHT,True,False,True,True,RIGHT,RIGHT
'\'(-inf-55]\'','\'(100-145]\'',EQUAL,EQUAL,False,True,True,True,LEFT,LEFT
'\'(370-415]\'','\'(-inf-55]\'',UP,RIGHT,True,True,True,False,UP,UP
'\'(370-415]\'','\'(235-280]\'',UP,EQUAL,False,True,True,True,LEFT,LEFT
'\'(55-100]\'','\'(-inf-55]\'',UP,RIGHT,True,True,True,False,UP,UP
'\'(-inf-55]\'','\'(235-280]\'',UP,LEFT,True,True,True,False,UP,UP
'\'(415-inf)\'','\'(-inf-55]\'',DOWN,RIGHT,True,False,False,True,RIGHT,RIGHT
'\'(-inf-55]\'','\'(235-280]\'',UP,EQUAL,False,True,True,True,LEFT,UP
'\'(-inf-55]\'','\'(235-280]\'',EQUAL,LEFT,True,True,False,True,DOWN,DOWN
'\'(-inf-55]\'','\'(415-inf)\'',DOWN,LEFT,False,True,True,True,LEFT,LEFT
'\'(100-145]\'','\'(-inf-55]\'',UP,LEFT,True,True,True,False,UP,UP
'\'(370-415]\'','\'(190-235]\'',UP,EQUAL,True,True,True,False,UP,UP
'\'(415-inf)\'','\'(415-inf)\'',DOWN,RIGHT,True,True,False,True,DOWN,DOWN
'\'(370-415]\'','\'(190-235]\'',UP,EQUAL,True,True,True,False,UP,UP
'\'(100-145]\'','\'(415-inf)\'',DOWN,RIGHT,False,True,True,True,LEFT,DOWN
'\'(145-190]\'','\'(415-inf)\'',DOWN,RIGHT,True,True,False,True,DOWN,RIGHT
'\'(415-inf)\'','\'(280-325]\'',DOWN,EQUAL,True,False,True,True,RIGHT,DOWN
'\'(55-100]\'','\'(370-415]\'',DOWN,LEFT,True,True,False,True,DOWN,DOWN
'\'(325-370]\'','\'(190-235]\'',DOWN,LEFT,True,True,True,False,UP,UP
'\'(415-inf)\'','\'(280-325]\'',DOWN,RIGHT,True,False,True,True,RIGHT,RIGHT
'\'(415-inf)\'','\'(145-190]\'',UP,RIGHT,True,False,True,True,RIGHT,RIGHT
'\'(235-280]\'','\'(145-190]\'',DOWN,RIGHT,True,False,True,True,RIGHT,RIGHT
'\'(325-370]\'','\'(280-325]\'',UP,LEFT,False,True,True,True,LEFT,LEFT
'\'(-inf-55]\'','\'(235-280]\'',DOWN,LEFT,False,True,True,True,LEFT,LEFT
'\'(415-inf)\'','\'(415-inf)\'',DOWN,RIGHT,True,False,True,True,RIGHT,RIGHT
'\'(280-325]\'','\'(235-280]\'',UP,RIGHT,True,False,True,False,RIGHT,RIGHT
'\'(100-145]\'','\'(-inf-55]\'',UP,LEFT,True,True,True,False,UP,UP
'\'(100-145]\'','\'(415-inf)\'',DOWN,RIGHT,True,False,True,True,RIGHT,RIGHT
'\'(280-325]\'','\'(-inf-55]\'',UP,EQUAL,True,True,True,False,UP,UP
'\'(-inf-55]\'','\'(415-inf)\'',DOWN,EQUAL,True,True,False,True,DOWN,DOWN
'\'(-inf-55]\'','\'(100-145]\'',DOWN,LEFT,True,True,False,True,DOWN,DOWN
'\'(415-inf)\'','\'(280-325]\'',DOWN,RIGHT,True,False,True,True,RIGHT,RIGHT
'\'(55-100]\'','\'(-inf-55]\'',UP,LEFT,True,True,True,False,UP,UP
'\'(280-325]\'','\'(-inf-55]\'',UP,RIGHT,True,False,True,True,RIGHT,RIGHT
'\'(325-370]\'','\'(325-370]\'',DOWN,EQUAL,True,True,False,True,DOWN,DOWN
'\'(100-145]\'','\'(55-100]\'',UP,RIGHT,True,False,True,True,RIGHT,UP
'\'(370-415]\'','\'(55-100]\'',UP,RIGHT,True,True,True,False,UP,UP
'\'(280-325]\'','\'(235-280]\'',UP,RIGHT,True,False,True,False,RIGHT,RIGHT
'\'(145-190]\'','\'(235-280]\'',EQUAL,LEFT,False,True,True,True,LEFT,LEFT
'\'(55-100]\'','\'(325-370]\'',DOWN,LEFT,True,True,False,True,DOWN,DOWN
'\'(-inf-55]\'','\'(370-415]\'',DOWN,LEFT,False,True,True,True,LEFT,LEFT
'\'(325-370]\'','\'(415-inf)\'',DOWN,RIGHT,False,True,True,True,LEFT,LEFT
'\'(145-190]\'','\'(325-370]\'',DOWN,EQUAL,True,True,False,True,DOWN,DOWN
'\'(190-235]\'','\'(325-370]\'',UP,RIGHT,True,False,True,True,RIGHT,RIGHT
'\'(-inf-55]\'','\'(370-415]\'',DOWN,RIGHT,True,True,False,True,DOWN,DOWN
'\'(-inf-55]\'','\'(235-280]\'',DOWN,LEFT,False,True,True,True,LEFT,LEFT
'\'(145-190]\'','\'(55-100]\'',UP,LEFT,True,True,True,False,UP,UP
'\'(55-100]\'','\'(325-370]\'',EQUAL,LEFT,False,True,True,True,LEFT,LEFT
'\'(235-280]\'','\'(415-inf)\'',DOWN,LEFT,True,True,False,True,DOWN,DOWN
'\'(325-370]\'','\'(280-325]\'',UP,LEFT,True,True,False,True,DOWN,LEFT
'\'(235-280]\'','\'(145-190]\'',UP,RIGHT,True,True,False,True,DOWN,DOWN
'\'(-inf-55]\'','\'(415-inf)\'',DOWN,LEFT,False,True,True,True,LEFT,LEFT
'\'(-inf-55]\'','\'(235-280]\'',UP,LEFT,False,True,True,True,LEFT,LEFT
'\'(-inf-55]\'','\'(325-370]\'',EQUAL,LEFT,False,True,True,True,LEFT,LEFT
'\'(145-190]\'','\'(145-190]\'',DOWN,LEFT,False,True,True,True,LEFT,LEFT
'\'(145-190]\'','\'(325-370]\'',DOWN,RIGHT,True,False,True,True,RIGHT,RIGHT
'\'(145-190]\'','\'(145-190]\'',DOWN,LEFT,False,True,True,True,LEFT,LEFT
'\'(-inf-55]\'','\'(235-280]\'',UP,LEFT,True,True,True,False,UP,UP
'\'(145-190]\'','\'(415-inf)\'',DOWN,RIGHT,True,True,False,True,DOWN,DOWN
'\'(370-415]\'','\'(235-280]\'',UP,RIGHT,False,True,True,True,LEFT,LEFT
'\'(370-415]\'','\'(-inf-55]\'',UP,RIGHT,True,True,True,False,UP,UP
'\'(145-190]\'','\'(415-inf)\'',DOWN,LEFT,False,True,True,True,LEFT,LEFT
'\'(325-370]\'','\'(415-inf)\'',DOWN,LEFT,True,True,False,True,DOWN,DOWN
'\'(415-inf)\'','\'(145-190]\'',UP,RIGHT,True,False,True,True,RIGHT,RIGHT
'\'(370-415]\'','\'(235-280]\'',UP,RIGHT,False,True,True,True,LEFT,LEFT
'\'(55-100]\'','\'(325-370]\'',DOWN,LEFT,True,True,False,True,DOWN,DOWN
'\'(145-190]\'','\'(370-415]\'',DOWN,RIGHT,True,False,True,True,RIGHT,DOWN
'\'(370-415]\'','\'(145-190]\'',DOWN,LEFT,True,False,True,True,RIGHT,DOWN
'\'(100-145]\'','\'(55-100]\'',UP,RIGHT,True,True,True,False,UP,UP
'\'(325-370]\'','\'(280-325]\'',UP,RIGHT,True,False,True,True,RIGHT,RIGHT
'\'(370-415]\'','\'(-inf-55]\'',UP,RIGHT,True,True,True,False,UP,UP
'\'(55-100]\'','\'(-inf-55]\'',UP,RIGHT,True,True,True,False,UP,UP
'\'(415-inf)\'','\'(280-325]\'',DOWN,RIGHT,True,True,False,True,DOWN,DOWN
'\'(-inf-55]\'','\'(100-145]\'',DOWN,LEFT,True,True,False,True,DOWN,DOWN
'\'(370-415]\'','\'(55-100]\'',UP,RIGHT,True,True,True,False,UP,UP
'\'(415-inf)\'','\'(235-280]\'',DOWN,EQUAL,True,False,True,True,RIGHT,DOWN
'\'(100-145]\'','\'(-inf-55]\'',UP,RIGHT,True,True,False,True,DOWN,DOWN
'\'(-inf-55]\'','\'(190-235]\'',EQUAL,LEFT,False,True,True,True,LEFT,LEFT
'\'(235-280]\'','\'(370-415]\'',UP,RIGHT,True,True,False,True,DOWN,DOWN
'\'(415-inf)\'','\'(145-190]\'',UP,RIGHT,True,False,True,True,RIGHT,RIGHT
'\'(-inf-55]\'','\'(370-415]\'',DOWN,LEFT,False,True,True,True,LEFT,LEFT
'\'(-inf-55]\'','\'(235-280]\'',EQUAL,EQUAL,True,False,False,True,RIGHT,RIGHT
'\'(-inf-55]\'','\'(370-415]\'',UP,LEFT,True,False,True,True,RIGHT,RIGHT
'\'(100-145]\'','\'(55-100]\'',UP,LEFT,True,True,False,True,DOWN,DOWN
'\'(-inf-55]\'','\'(325-370]\'',EQUAL,LEFT,False,True,True,True,LEFT,LEFT
'\'(55-100]\'','\'(370-415]\'',DOWN,LEFT,False,True,True,True,LEFT,LEFT
'\'(415-inf)\'','\'(415-inf)\'',DOWN,RIGHT,True,True,False,True,DOWN,DOWN
'\'(280-325]\'','\'(325-370]\'',UP,RIGHT,True,True,True,False,UP,UP
'\'(55-100]\'','\'(-inf-55]\'',UP,RIGHT,True,True,True,False,UP,UP
'\'(145-190]\'','\'(415-inf)\'',DOWN,RIGHT,True,True,False,True,DOWN,DOWN
'\'(145-190]\'','\'(55-100]\'',EQUAL,RIGHT,True,False,True,True,RIGHT,RIGHT
'\'(145-190]\'','\'(235-280]\'',EQUAL,EQUAL,True,True,True,False,UP,UP
'\'(415-inf)\'','\'(280-325]\'',DOWN,RIGHT,True,False,True,True,RIGHT,RIGHT
'\'(-inf-55]\'','\'(325-370]\'',DOWN,LEFT,True,True,False,True,DOWN,DOWN
'\'(235-280]\'','\'(415-inf)\'',DOWN,LEFT,True,True,False,True,DOWN,DOWN
'\'(325-370]\'','\'(415-inf)\'',DOWN,LEFT,True,True,False,True,DOWN,DOWN
'\'(325-370]\'','\'(415-inf)\'',DOWN,LEFT,True,True,False,True,DOWN,DOWN
'\'(370-415]\'','\'(-inf-55]\'',UP,RIGHT,True,True,True,False,UP,UP
'\'(415-inf)\'','\'(415-inf)\'',DOWN,RIGHT,True,False,True,True,RIGHT,RIGHT
'\'(145-190]\'','\'(55-100]\'',UP,LEFT,True,True,True,False,UP,UP
'\'(190-235]\'','\'(415-inf)\'',DOWN,RIGHT,True,True,True,False,UP,RIGHT
'\'(55-100]\'','\'(-inf-55]\'',UP,RIGHT,True,True,True,False,UP,UP
'\'(-inf-55]\'','\'(415-inf)\'',DOWN,EQUAL,False,True,True,True,LEFT,DOWN
'\'(55-100]\'','\'(-inf-55]\'',UP,LEFT,True,True,True,False,UP,UP
'\'(145-190]\'','\'(55-100]\'',EQUAL,LEFT,True,True,True,False,UP,UP
'\'(325-370]\'','\'(280-325]\'',DOWN,LEFT,True,True,False,True,DOWN,DOWN
'\'(415-inf)\'','\'(145-190]\'',UP,RIGHT,True,False,True,True,RIGHT,RIGHT
'\'(145-190]\'','\'(415-inf)\'',DOWN,RIGHT,True,False,True,True,RIGHT,DOWN
'\'(280-325]\'','\'(100-145]\'',DOWN,RIGHT,True,True,True,False,UP,UP
'\'(280-325]\'','\'(-inf-55]\'',UP,EQUAL,True,True,True,False,UP,UP
'\'(415-inf)\'','\'(235-280]\'',DOWN,EQUAL,True,True,False,True,DOWN,DOWN
'\'(-inf-55]\'','\'(415-inf)\'',DOWN,LEFT,True,True,False,True,DOWN,DOWN
'\'(-inf-55]\'','\'(325-370]\'',DOWN,LEFT,True,True,False,True,DOWN,DOWN
'\'(370-415]\'','\'(-inf-55]\'',EQUAL,RIGHT,True,False,True,True,RIGHT,RIGHT
'\'(415-inf)\'','\'(55-100]\'',UP,RIGHT,True,True,True,False,UP,UP
'\'(145-190]\'','\'(145-190]\'',DOWN,EQUAL,True,True,False,True,DOWN,DOWN
'\'(370-415]\'','\'(235-280]\'',UP,EQUAL,True,True,True,False,UP,UP
'\'(-inf-55]\'','\'(415-inf)\'',DOWN,LEFT,False,True,True,True,LEFT,LEFT
'\'(190-235]\'','\'(415-inf)\'',DOWN,RIGHT,True,True,False,True,DOWN,DOWN
'\'(145-190]\'','\'(55-100]\'',DOWN,RIGHT,True,True,False,True,DOWN,DOWN
'\'(415-inf)\'','\'(280-325]\'',DOWN,RIGHT,True,False,True,True,RIGHT,RIGHT
'\'(370-415]\'','\'(235-280]\'',UP,RIGHT,True,True,True,False,UP,UP
'\'(235-280]\'','\'(145-190]\'',UP,RIGHT,True,False,True,True,RIGHT,RIGHT
'\'(370-415]\'','\'(-inf-55]\'',DOWN,RIGHT,True,False,True,True,RIGHT,RIGHT
'\'(325-370]\'','\'(415-inf)\'',EQUAL,RIGHT,True,False,False,True,RIGHT,RIGHT
'\'(-inf-55]\'','\'(235-280]\'',UP,LEFT,True,True,True,False,UP,UP
'\'(280-325]\'','\'(100-145]\'',UP,LEFT,True,True,True,False,UP,UP
'\'(280-325]\'','\'(-inf-55]\'',UP,RIGHT,True,False,True,True,RIGHT,RIGHT
'\'(-inf-55]\'','\'(370-415]\'',DOWN,LEFT,False,True,True,True,LEFT,LEFT
'\'(145-190]\'','\'(235-280]\'',EQUAL,LEFT,False,True,True,True,LEFT,LEFT
'\'(325-370]\'','\'(190-235]\'',DOWN,RIGHT,False,True,True,True,LEFT,LEFT
'\'(235-280]\'','\'(415-inf)\'',EQUAL,LEFT,False,True,True,True,LEFT,LEFT
'\'(-inf-55]\'','\'(370-415]\'',DOWN,LEFT,False,True,True,True,LEFT,LEFT
'\'(145-190]\'','\'(370-415]\'',EQUAL,RIGHT,True,True,False,False,DOWN,RIGHT
'\'(370-415]\'','\'(55-100]\'',EQUAL,RIGHT,True,True,True,False,UP,UP
'\'(100-145]\'','\'(55-100]\'',UP,RIGHT,True,True,True,False,UP,UP
'\'(-inf-55]\'','\'(325-370]\'',EQUAL,LEFT,False,True,True,True,LEFT,LEFT
'\'(280-325]\'','\'(-inf-55]\'',UP,RIGHT,True,False,True,True,RIGHT,RIGHT
'\'(145-190]\'','\'(370-415]\'',UP,LEFT,False,True,True,True,LEFT,LEFT
'\'(325-370]\'','\'(280-325]\'',UP,LEFT,False,True,True,True,LEFT,LEFT
'\'(235-280]\'','\'(190-235]\'',UP,EQUAL,True,True,True,False,UP,UP
'\'(145-190]\'','\'(325-370]\'',DOWN,EQUAL,True,True,False,True,DOWN,DOWN
'\'(145-190]\'','\'(235-280]\'',EQUAL,LEFT,False,True,True,True,LEFT,LEFT
'\'(100-145]\'','\'(-inf-55]\'',DOWN,LEFT,False,True,False,True,LEFT,LEFT
'\'(145-190]\'','\'(415-inf)\'',DOWN,RIGHT,True,True,False,True,DOWN,DOWN
'\'(190-235]\'','\'(325-370]\'',UP,EQUAL,True,True,True,False,UP,UP
'\'(415-inf)\'','\'(415-inf)\'',DOWN,RIGHT,True,False,True,True,RIGHT,RIGHT
'\'(100-145]\'','\'(-inf-55]\'',DOWN,LEFT,False,True,True,True,LEFT,LEFT
'\'(370-415]\'','\'(-inf-55]\'',EQUAL,RIGHT,True,False,True,True,RIGHT,RIGHT
'\'(325-370]\'','\'(415-inf)\'',DOWN,LEFT,True,True,False,True,DOWN,DOWN
'\'(100-145]\'','\'(-inf-55]\'',DOWN,LEFT,False,True,True,True,LEFT,LEFT
'\'(370-415]\'','\'(235-280]\'',UP,EQUAL,True,True,True,False,UP,UP
'\'(-inf-55]\'','\'(415-inf)\'',DOWN,LEFT,False,True,True,True,LEFT,LEFT
'\'(100-145]\'','\'(55-100]\'',UP,EQUAL,True,True,True,False,UP,UP
'\'(145-190]\'','\'(370-415]\'',EQUAL,RIGHT,True,True,True,False,UP,UP
'\'(280-325]\'','\'(-inf-55]\'',UP,RIGHT,True,False,True,True,RIGHT,RIGHT
'\'(370-415]\'','\'(55-100]\'',EQUAL,EQUAL,True,False,True,False,RIGHT,UP
'\'(415-inf)\'','\'(415-inf)\'',DOWN,RIGHT,True,False,True,True,RIGHT,RIGHT
'\'(-inf-55]\'','\'(190-235]\'',EQUAL,LEFT,False,True,True,True,LEFT,LEFT
'\'(145-190]\'','\'(235-280]\'',DOWN,LEFT,True,True,False,True,DOWN,DOWN
'\'(370-415]\'','\'(-inf-55]\'',UP,RIGHT,True,True,True,False,UP,UP
'\'(145-190]\'','\'(415-inf)\'',DOWN,RIGHT,True,True,False,True,DOWN,DOWN
'\'(370-415]\'','\'(145-190]\'',UP,LEFT,True,True,False,True,DOWN,LEFT
'\'(-inf-55]\'','\'(190-235]\'',UP,LEFT,True,True,True,False,UP,UP
'\'(325-370]\'','\'(415-inf)\'',EQUAL,RIGHT,True,False,False,True,RIGHT,RIGHT
'\'(145-190]\'','\'(325-370]\'',DOWN,RIGHT,True,False,True,True,RIGHT,RIGHT
'\'(370-415]\'','\'(55-100]\'',DOWN,RIGHT,True,False,True,True,RIGHT,RIGHT
'\'(370-415]\'','\'(235-280]\'',UP,LEFT,False,True,True,True,LEFT,LEFT
'\'(280-325]\'','\'(-inf-55]\'',UP,EQUAL,True,True,True,False,UP,UP
'\'(280-325]\'','\'(-inf-55]\'',UP,RIGHT,True,False,True,True,RIGHT,RIGHT
'\'(325-370]\'','\'(415-inf)\'',DOWN,LEFT,True,True,False,True,DOWN,DOWN
'\'(-inf-55]\'','\'(370-415]\'',EQUAL,LEFT,False,True,True,False,LEFT,LEFT
'\'(-inf-55]\'','\'(370-415]\'',DOWN,LEFT,False,True,True,True,LEFT,LEFT
'\'(145-190]\'','\'(415-inf)\'',DOWN,RIGHT,True,True,False,True,DOWN,DOWN
'\'(-inf-55]\'','\'(370-415]\'',DOWN,LEFT,False,True,True,True,LEFT,LEFT
'\'(-inf-55]\'','\'(100-145]\'',DOWN,LEFT,True,True,False,True,DOWN,DOWN
'\'(-inf-55]\'','\'(415-inf)\'',DOWN,EQUAL,True,True,False,True,DOWN,DOWN
'\'(325-370]\'','\'(190-235]\'',DOWN,RIGHT,True,False,False,True,RIGHT,RIGHT
'\'(55-100]\'','\'(-inf-55]\'',UP,LEFT,True,True,False,True,DOWN,DOWN
'\'(145-190]\'','\'(235-280]\'',EQUAL,LEFT,False,True,True,True,LEFT,LEFT
'\'(325-370]\'','\'(280-325]\'',DOWN,LEFT,True,True,False,True,DOWN,DOWN
'\'(-inf-55]\'','\'(370-415]\'',UP,LEFT,True,False,True,True,RIGHT,RIGHT
'\'(-inf-55]\'','\'(370-415]\'',DOWN,LEFT,False,True,True,True,LEFT,LEFT
'\'(190-235]\'','\'(415-inf)\'',DOWN,RIGHT,True,True,True,False,UP,UP
'\'(-inf-55]\'','\'(100-145]\'',DOWN,LEFT,False,True,True,True,LEFT,LEFT
'\'(-inf-55]\'','\'(415-inf)\'',DOWN,EQUAL,True,True,False,True,DOWN,DOWN
'\'(145-190]\'','\'(55-100]\'',EQUAL,RIGHT,True,False,True,True,RIGHT,RIGHT
'\'(145-190]\'','\'(325-370]\'',DOWN,EQUAL,True,True,False,True,DOWN,DOWN
'\'(100-145]\'','\'(55-100]\'',UP,EQUAL,False,True,True,True,LEFT,UP
'\'(280-325]\'','\'(-inf-55]\'',EQUAL,EQUAL,False,False,True,False,LEFT,UP
'\'(370-415]\'','\'(55-100]\'',DOWN,RIGHT,True,False,True,True,RIGHT,RIGHT
'\'(415-inf)\'','\'(415-inf)\'',DOWN,RIGHT,False,True,True,True,LEFT,UP
'\'(-inf-55]\'','\'(235-280]\'',DOWN,LEFT,True,True,False,True,DOWN,DOWN
'\'(370-415]\'','\'(145-190]\'',DOWN,LEFT,True,True,False,True,DOWN,DOWN
'\'(235-280]\'','\'(370-415]\'',UP,RIGHT,True,False,True,True,RIGHT,RIGHT
'\'(55-100]\'','\'(325-370]\'',DOWN,LEFT,True,True,False,True,DOWN,DOWN
'\'(55-100]\'','\'(-inf-55]\'',UP,RIGHT,True,True,True,False,UP,UP
'\'(-inf-55]\'','\'(325-370]\'',EQUAL,LEFT,False,True,True,True,LEFT,LEFT
'\'(-inf-55]\'','\'(235-280]\'',UP,LEFT,True,True,True,False,UP,UP
'\'(325-370]\'','\'(190-235]\'',UP,LEFT,True,False,True,True,RIGHT,RIGHT
'\'(-inf-55]\'','\'(235-280]\'',UP,LEFT,False,True,True,True,LEFT,LEFT
'\'(-inf-55]\'','\'(325-370]\'',DOWN,LEFT,True,False,True,True,RIGHT,DOWN
'\'(235-280]\'','\'(100-145]\'',DOWN,LEFT,True,True,False,True,DOWN,DOWN
'\'(145-190]\'','\'(235-280]\'',EQUAL,LEFT,False,True,True,True,LEFT,LEFT
'\'(100-145]\'','\'(55-100]\'',UP,LEFT,False,True,True,True,LEFT,LEFT
'\'(415-inf)\'','\'(415-inf)\'',DOWN,RIGHT,True,False,True,True,RIGHT,RIGHT
'\'(415-inf)\'','\'(415-inf)\'',DOWN,RIGHT,True,True,True,False,UP,UP
'\'(55-100]\'','\'(145-190]\'',DOWN,LEFT,True,True,True,False,UP,UP
'\'(100-145]\'','\'(55-100]\'',UP,RIGHT,True,True,True,False,UP,UP
'\'(100-145]\'','\'(-inf-55]\'',UP,LEFT,True,True,True,False,UP,UP
'\'(415-inf)\'','\'(280-325]\'',DOWN,RIGHT,True,False,True,True,RIGHT,RIGHT
'\'(370-415]\'','\'(-inf-55]\'',UP,RIGHT,True,True,True,False,UP,UP
'\'(235-280]\'','\'(190-235]\'',UP,LEFT,False,True,True,True,LEFT,LEFT
'\'(370-415]\'','\'(235-280]\'',UP,RIGHT,True,True,True,False,UP,UP
'\'(55-100]\'','\'(325-370]\'',EQUAL,LEFT,False,True,True,True,LEFT,LEFT
'\'(-inf-55]\'','\'(415-inf)\'',DOWN,LEFT,False,True,True,True,LEFT,LEFT
'\'(145-190]\'','\'(235-280]\'',EQUAL,LEFT,False,True,True,True,LEFT,LEFT
'\'(415-inf)\'','\'(145-190]\'',UP,RIGHT,True,False,True,True,RIGHT,RIGHT
'\'(280-325]\'','\'(235-280]\'',UP,EQUAL,True,True,True,False,UP,UP
'\'(145-190]\'','\'(415-inf)\'',DOWN,RIGHT,True,True,False,True,DOWN,DOWN
'\'(100-145]\'','\'(-inf-55]\'',UP,EQUAL,True,True,True,False,UP,UP
'\'(100-145]\'','\'(415-inf)\'',DOWN,LEFT,True,True,False,True,DOWN,LEFT
'\'(370-415]\'','\'(55-100]\'',UP,RIGHT,True,True,True,False,UP,UP
'\'(415-inf)\'','\'(415-inf)\'',DOWN,RIGHT,True,True,True,False,UP,UP
'\'(370-415]\'','\'(55-100]\'',DOWN,RIGHT,True,False,True,True,RIGHT,RIGHT
'\'(415-inf)\'','\'(145-190]\'',UP,RIGHT,True,False,True,True,RIGHT,RIGHT
'\'(190-235]\'','\'(415-inf)\'',DOWN,RIGHT,True,True,False,True,DOWN,DOWN
'\'(370-415]\'','\'(145-190]\'',DOWN,RIGHT,True,False,True,True,RIGHT,RIGHT
'\'(190-235]\'','\'(325-370]\'',UP,RIGHT,True,False,True,True,RIGHT,RIGHT
'\'(145-190]\'','\'(55-100]\'',EQUAL,RIGHT,True,False,True,True,RIGHT,RIGHT
'\'(-inf-55]\'','\'(100-145]\'',UP,EQUAL,False,True,True,False,UP,UP
'\'(-inf-55]\'','\'(370-415]\'',DOWN,RIGHT,True,True,False,True,DOWN,DOWN
'\'(280-325]\'','\'(100-145]\'',DOWN,EQUAL,True,False,False,True,DOWN,DOWN
'\'(-inf-55]\'','\'(415-inf)\'',DOWN,LEFT,False,True,True,True,LEFT,LEFT
'\'(55-100]\'','\'(325-370]\'',DOWN,LEFT,True,True,False,True,DOWN,DOWN
'\'(100-145]\'','\'(55-100]\'',UP,EQUAL,True,True,True,False,UP,UP
'\'(325-370]\'','\'(280-325]\'',DOWN,LEFT,True,True,False,True,DOWN,DOWN
'\'(55-100]\'','\'(-inf-55]\'',UP,EQUAL,True,True,True,False,UP,UP
'\'(55-100]\'','\'(325-370]\'',DOWN,LEFT,True,True,False,True,DOWN,DOWN
'\'(-inf-55]\'','\'(190-235]\'',UP,LEFT,True,False,True,True,RIGHT,RIGHT
'\'(55-100]\'','\'(325-370]\'',EQUAL,LEFT,False,True,True,True,LEFT,LEFT
'\'(-inf-55]\'','\'(370-415]\'',EQUAL,LEFT,False,True,True,False,LEFT,LEFT
'\'(415-inf)\'','\'(55-100]\'',UP,RIGHT,True,True,True,False,UP,UP
'\'(145-190]\'','\'(415-inf)\'',DOWN,EQUAL,True,True,False,True,DOWN,DOWN
'\'(-inf-55]\'','\'(235-280]\'',DOWN,LEFT,False,True,True,True,LEFT,LEFT
'\'(190-235]\'','\'(415-inf)\'',DOWN,RIGHT,True,True,True,False,UP,UP
'\'(370-415]\'','\'(55-100]\'',UP,RIGHT,True,True,True,False,UP,UP
'\'(-inf-55]\'','\'(370-415]\'',UP,LEFT,True,False,True,True,RIGHT,UP
'\'(145-190]\'','\'(325-370]\'',DOWN,EQUAL,True,True,False,True,DOWN,DOWN
'\'(235-280]\'','\'(415-inf)\'',EQUAL,LEFT,False,True,True,True,LEFT,LEFT
'\'(-inf-55]\'','\'(415-inf)\'',DOWN,LEFT,False,True,True,True,LEFT,LEFT
'\'(370-415]\'','\'(235-280]\'',UP,RIGHT,True,False,True,True,RIGHT,RIGHT
'\'(325-370]\'','\'(190-235]\'',DOWN,LEFT,True,True,True,False,UP,UP
'\'(415-inf)\'','\'(-inf-55]\'',UP,RIGHT,True,True,True,False,UP,UP
'\'(325-370]\'','\'(280-325]\'',UP,RIGHT,True,False,True,True,RIGHT,RIGHT
'\'(415-inf)\'','\'(-inf-55]\'',UP,EQUAL,True,True,True,False,UP,UP
'\'(100-145]\'','\'(-inf-55]\'',UP,LEFT,True,False,True,True,RIGHT,RIGHT
'\'(190-235]\'','\'(55-100]\'',EQUAL,RIGHT,True,False,True,True,RIGHT,RIGHT
'\'(190-235]\'','\'(415-inf)\'',DOWN,RIGHT,True,True,False,True,DOWN,DOWN
'\'(145-190]\'','\'(55-100]\'',UP,EQUAL,True,False,True,False,UP,UP
'\'(-inf-55]\'','\'(415-inf)\'',DOWN,LEFT,False,True,True,True,LEFT,LEFT
'\'(280-325]\'','\'(235-280]\'',UP,RIGHT,True,False,True,False,RIGHT,RIGHT
'\'(415-inf)\'','\'(415-inf)\'',DOWN,RIGHT,True,False,True,True,RIGHT,RIGHT
'\'(235-280]\'','\'(145-190]\'',UP,RIGHT,False,True,True,True,LEFT,LEFT
'\'(415-inf)\'','\'(55-100]\'',UP,RIGHT,True,True,True,False,UP,UP
'\'(190-235]\'','\'(325-370]\'',UP,RIGHT,True,True,False,True,DOWN,RIGHT
'\'(370-415]\'','\'(-inf-55]\'',UP,RIGHT,True,True,True,False,UP,UP
'\'(145-190]\'','\'(55-100]\'',UP,RIGHT,True,True,False,True,DOWN,DOWN
'\'(415-inf)\'','\'(-inf-55]\'',DOWN,RIGHT,True,False,False,True,RIGHT,RIGHT
'\'(280-325]\'','\'(235-280]\'',UP,RIGHT,True,False,True,False,RIGHT,RIGHT
'\'(370-415]\'','\'(-inf-55]\'',UP,RIGHT,True,False,True,True,RIGHT,RIGHT
'\'(100-145]\'','\'(-inf-55]\'',UP,EQUAL,True,False,True,True,RIGHT,RIGHT
'\'(55-100]\'','\'(370-415]\'',DOWN,LEFT,True,True,False,True,DOWN,DOWN
'\'(55-100]\'','\'(-inf-55]\'',UP,LEFT,True,True,False,True,DOWN,DOWN
'\'(145-190]\'','\'(55-100]\'',DOWN,RIGHT,True,True,False,True,DOWN,DOWN
'\'(-inf-55]\'','\'(235-280]\'',DOWN,LEFT,True,True,False,True,DOWN,DOWN
'\'(55-100]\'','\'(145-190]\'',DOWN,LEFT,True,True,True,False,UP,LEFT
'\'(415-inf)\'','\'(235-280]\'',DOWN,RIGHT,True,False,True,True,RIGHT,RIGHT
'\'(-inf-55]\'','\'(190-235]\'',UP,LEFT,True,True,True,False,UP,UP
'\'(370-415]\'','\'(190-235]\'',UP,LEFT,False,True,True,True,LEFT,LEFT
'\'(370-415]\'','\'(-inf-55]\'',UP,RIGHT,True,False,True,True,RIGHT,RIGHT
'\'(235-280]\'','\'(145-190]\'',UP,RIGHT,False,True,True,True,LEFT,LEFT
'\'(-inf-55]\'','\'(235-280]\'',DOWN,LEFT,True,True,True,False,UP,UP
'\'(100-145]\'','\'(-inf-55]\'',EQUAL,LEFT,False,True,True,True,LEFT,LEFT
'\'(100-145]\'','\'(-inf-55]\'',UP,LEFT,True,True,True,False,UP,UP
'\'(415-inf)\'','\'(-inf-55]\'',UP,RIGHT,True,False,True,True,RIGHT,RIGHT
'\'(55-100]\'','\'(325-370]\'',DOWN,LEFT,True,True,False,True,DOWN,DOWN
'\'(415-inf)\'','\'(55-100]\'',EQUAL,RIGHT,True,False,True,True,RIGHT,RIGHT
'\'(100-145]\'','\'(55-100]\'',UP,RIGHT,True,True,True,False,UP,UP
'\'(415-inf)\'','\'(280-325]\'',DOWN,RIGHT,True,True,False,True,DOWN,DOWN
'\'(145-190]\'','\'(55-100]\'',DOWN,LEFT,False,True,True,True,LEFT,LEFT
'\'(235-280]\'','\'(145-190]\'',EQUAL,RIGHT,True,False,True,False,RIGHT,RIGHT
'\'(280-325]\'','\'(-inf-55]\'',UP,RIGHT,True,False,True,True,RIGHT,RIGHT
'\'(325-370]\'','\'(280-325]\'',UP,RIGHT,True,False,True,True,RIGHT,RIGHT
'\'(415-inf)\'','\'(415-inf)\'',DOWN,RIGHT,True,False,True,True,RIGHT,RIGHT
'\'(-inf-55]\'','\'(415-inf)\'',DOWN,LEFT,True,True,False,True,DOWN,LEFT
'\'(370-415]\'','\'(190-235]\'',UP,LEFT,False,True,True,True,LEFT,LEFT
'\'(-inf-55]\'','\'(415-inf)\'',DOWN,LEFT,True,True,False,True,DOWN,DOWN
'\'(325-370]\'','\'(415-inf)\'',DOWN,LEFT,True,True,False,True,DOWN,DOWN
'\'(55-100]\'','\'(370-415]\'',DOWN,LEFT,True,False,True,True,RIGHT,RIGHT
'\'(235-280]\'','\'(145-190]\'',UP,RIGHT,True,True,True,False,UP,UP
'\'(370-415]\'','\'(-inf-55]\'',UP,RIGHT,True,True,True,False,UP,UP
'\'(415-inf)\'','\'(-inf-55]\'',UP,EQUAL,True,True,True,False,UP,UP
'\'(415-inf)\'','\'(325-370]\'',DOWN,RIGHT,True,False,True,True,RIGHT,RIGHT
'\'(280-325]\'','\'(235-280]\'',UP,EQUAL,True,True,True,False,UP,UP
'\'(-inf-55]\'','\'(415-inf)\'',DOWN,LEFT,False,True,True,True,LEFT,LEFT
'\'(370-415]\'','\'(145-190]\'',DOWN,RIGHT,True,False,False,True,DOWN,RIGHT
'\'(370-415]\'','\'(55-100]\'',DOWN,RIGHT,True,False,True,True,RIGHT,RIGHT
'\'(235-280]\'','\'(100-145]\'',DOWN,RIGHT,True,False,True,True,RIGHT,RIGHT
'\'(325-370]\'','\'(325-370]\'',DOWN,EQUAL,True,True,False,True,DOWN,DOWN
'\'(-inf-55]\'','\'(370-415]\'',DOWN,LEFT,False,True,True,True,LEFT,LEFT
'\'(55-100]\'','\'(370-415]\'',DOWN,LEFT,True,True,False,True,DOWN,DOWN
'\'(190-235]\'','\'(415-inf)\'',DOWN,RIGHT,True,True,True,False,UP,UP
'\'(145-190]\'','\'(55-100]\'',DOWN,RIGHT,True,True,False,True,DOWN,DOWN
'\'(145-190]\'','\'(370-415]\'',UP,RIGHT,False,True,True,True,LEFT,LEFT
'\'(100-145]\'','\'(415-inf)\'',DOWN,RIGHT,True,True,False,True,DOWN,DOWN
'\'(55-100]\'','\'(-inf-55]\'',UP,LEFT,False,True,True,True,LEFT,LEFT
'\'(325-370]\'','\'(280-325]\'',DOWN,LEFT,True,True,False,True,DOWN,DOWN
'\'(415-inf)\'','\'(415-inf)\'',DOWN,RIGHT,True,False,True,True,RIGHT,RIGHT
'\'(55-100]\'','\'(-inf-55]\'',UP,RIGHT,True,True,True,False,UP,UP
'\'(-inf-55]\'','\'(415-inf)\'',DOWN,LEFT,False,True,True,True,LEFT,LEFT
'\'(235-280]\'','\'(145-190]\'',UP,RIGHT,False,True,True,True,LEFT,LEFT
'\'(55-100]\'','\'(-inf-55]\'',UP,LEFT,True,True,True,False,UP,UP
'\'(370-415]\'','\'(-inf-55]\'',UP,RIGHT,True,True,True,False,UP,UP
'\'(100-145]\'','\'(55-100]\'',UP,RIGHT,True,True,True,False,UP,UP
'\'(145-190]\'','\'(145-190]\'',DOWN,LEFT,False,True,True,True,LEFT,LEFT
'\'(325-370]\'','\'(415-inf)\'',DOWN,LEFT,True,True,False,True,DOWN,DOWN
'\'(-inf-55]\'','\'(235-280]\'',UP,LEFT,True,False,True,True,RIGHT,UP
'\'(235-280]\'','\'(145-190]\'',DOWN,LEFT,True,True,False,True,DOWN,DOWN
'\'(370-415]\'','\'(235-280]\'',UP,RIGHT,True,True,True,False,UP,UP
'\'(145-190]\'','\'(55-100]\'',DOWN,RIGHT,False,True,True,True,LEFT,LEFT
'\'(325-370]\'','\'(190-235]\'',DOWN,RIGHT,True,True,False,True,DOWN,RIGHT
'\'(235-280]\'','\'(145-190]\'',UP,RIGHT,True,False,True,True,RIGHT,UP
'\'(190-235]\'','\'(415-inf)\'',DOWN,RIGHT,True,True,True,False,UP,UP
'\'(100-145]\'','\'(-inf-55]\'',UP,LEFT,True,True,True,False,UP,UP
'\'(145-190]\'','\'(55-100]\'',UP,LEFT,True,True,True,False,UP,UP
'\'(235-280]\'','\'(145-190]\'',DOWN,RIGHT,True,False,True,True,RIGHT,RIGHT
'\'(145-190]\'','\'(325-370]\'',EQUAL,EQUAL,True,True,True,False,UP,RIGHT
'\'(145-190]\'','\'(370-415]\'',DOWN,RIGHT,True,False,True,True,RIGHT,RIGHT
'\'(-inf-55]\'','\'(235-280]\'',UP,LEFT,True,False,False,True,RIGHT,RIGHT
'\'(325-370]\'','\'(415-inf)\'',DOWN,LEFT,True,True,False,True,DOWN,DOWN
'\'(325-370]\'','\'(415-inf)\'',DOWN,LEFT,True,True,False,True,DOWN,DOWN
'\'(100-145]\'','\'(-inf-55]\'',DOWN,RIGHT,False,True,False,True,LEFT,DOWN
'\'(-inf-55]\'','\'(370-415]\'',UP,RIGHT,True,True,False,True,DOWN,RIGHT
'\'(55-100]\'','\'(370-415]\'',DOWN,RIGHT,True,True,False,True,DOWN,DOWN
'\'(415-inf)\'','\'(235-280]\'',DOWN,RIGHT,True,False,True,True,RIGHT,RIGHT
'\'(280-325]\'','\'(100-145]\'',UP,LEFT,True,True,True,False,UP,UP
'\'(370-415]\'','\'(55-100]\'',DOWN,RIGHT,True,False,True,True,RIGHT,RIGHT
'\'(280-325]\'','\'(-inf-55]\'',UP,RIGHT,True,False,True,True,RIGHT,RIGHT
'\'(145-190]\'','\'(55-100]\'',EQUAL,RIGHT,True,False,True,True,RIGHT,RIGHT
'\'(415-inf)\'','\'(145-190]\'',UP,RIGHT,True,True,False,True,DOWN,DOWN
'\'(55-100]\'','\'(325-370]\'',DOWN,LEFT,True,True,False,True,DOWN,DOWN
'\'(370-415]\'','\'(145-190]\'',UP,EQUAL,False,True,True,False,UP,UP
'\'(415-inf)\'','\'(280-325]\'',DOWN,RIGHT,True,False,True,True,RIGHT,RIGHT
'\'(235-280]\'','\'(190-235]\'',UP,EQUAL,True,True,True,False,UP,UP
'\'(55-100]\'','\'(325-370]\'',DOWN,LEFT,True,True,False,True,DOWN,DOWN
'\'(370-415]\'','\'(-inf-55]\'',UP,RIGHT,True,False,True,True,RIGHT,RIGHT
'\'(415-inf)\'','\'(-inf-55]\'',UP,RIGHT,True,False,True,True,RIGHT,RIGHT
'\'(100-145]\'','\'(-inf-55]\'',DOWN,LEFT,False,True,True,True,LEFT,LEFT
'\'(55-100]\'','\'(325-370]\'',DOWN,LEFT,True,True,False,True,DOWN,DOWN
'\'(235-280]\'','\'(415-inf)\'',DOWN,LEFT,True,True,False,True,DOWN,DOWN
'\'(-inf-55]\'','\'(190-235]\'',UP,LEFT,True,True,True,False,UP,UP
'\'(-inf-55]\'','\'(235-280]\'',DOWN,LEFT,False,True,True,True,LEFT,LEFT
'\'(280-325]\'','\'(100-145]\'',UP,RIGHT,True,True,True,False,UP,UP
'\'(-inf-55]\'','\'(190-235]\'',UP,LEFT,True,True,True,False,UP,UP
'\'(145-190]\'','\'(235-280]\'',DOWN,LEFT,True,True,False,True,DOWN,DOWN
'\'(-inf-55]\'','\'(415-inf)\'',DOWN,EQUAL,True,True,False,True,DOWN,DOWN
'\'(-inf-55]\'','\'(100-145]\'',DOWN,LEFT,True,True,False,True,DOWN,LEFT
'\'(190-235]\'','\'(55-100]\'',EQUAL,RIGHT,True,False,True,True,RIGHT,RIGHT
'\'(-inf-55]\'','\'(235-280]\'',DOWN,LEFT,False,True,True,True,LEFT,LEFT
'\'(55-100]\'','\'(-inf-55]\'',EQUAL,RIGHT,True,True,True,False,UP,UP
'\'(415-inf)\'','\'(415-inf)\'',DOWN,RIGHT,True,False,True,True,RIGHT,RIGHT
'\'(415-inf)\'','\'(145-190]\'',UP,EQUAL,True,True,True,False,UP,UP
'\'(-inf-55]\'','\'(415-inf)\'',DOWN,EQUAL,True,True,False,True,DOWN,DOWN
'\'(235-280]\'','\'(190-235]\'',UP,EQUAL,True,True,True,False,UP,UP
'\'(190-235]\'','\'(325-370]\'',UP,RIGHT,True,False,True,True,RIGHT,RIGHT
'\'(100-145]\'','\'(-inf-55]\'',UP,LEFT,True,True,True,False,UP,UP
'\'(280-325]\'','\'(235-280]\'',UP,EQUAL,True,True,True,False,UP,UP
'\'(415-inf)\'','\'(235-280]\'',DOWN,RIGHT,True,False,True,True,RIGHT,RIGHT
'\'(190-235]\'','\'(415-inf)\'',DOWN,RIGHT,True,True,False,True,DOWN,DOWN
'\'(-inf-55]\'','\'(100-145]\'',UP,EQUAL,False,True,True,True,LEFT,UP
'\'(145-190]\'','\'(415-inf)\'',DOWN,EQUAL,True,True,False,True,DOWN,DOWN
'\'(145-190]\'','\'(325-370]\'',DOWN,EQUAL,True,True,False,True,DOWN,DOWN
'\'(325-370]\'','\'(280-325]\'',DOWN,LEFT,True,True,False,True,DOWN,DOWN
'\'(325-370]\'','\'(190-235]\'',EQUAL,EQUAL,False,True,True,False,UP,UP
'\'(370-415]\'','\'(190-235]\'',UP,EQUAL,True,True,True,False,UP,UP
'\'(190-235]\'','\'(415-inf)\'',DOWN,RIGHT,True,True,False,True,DOWN,DOWN
'\'(415-inf)\'','\'(-inf-55]\'',DOWN,RIGHT,True,False,False,True,RIGHT,RIGHT
'\'(235-280]\'','\'(145-190]\'',DOWN,RIGHT,True,True,False,True,DOWN,DOWN
'\'(-inf-55]\'','\'(415-inf)\'',DOWN,LEFT,False,True,True,True,LEFT,LEFT
'\'(415-inf)\'','\'(415-inf)\'',DOWN,RIGHT,True,False,True,True,RIGHT,RIGHT
'\'(325-370]\'','\'(415-inf)\'',DOWN,LEFT,True,True,False,True,DOWN,DOWN
'\'(145-190]\'','\'(370-415]\'',DOWN,RIGHT,True,False,True,True,RIGHT,RIGHT
'\'(325-370]\'','\'(190-235]\'',DOWN,EQUAL,True,True,False,True,DOWN,DOWN
'\'(-inf-55]\'','\'(415-inf)\'',DOWN,LEFT,True,True,False,True,DOWN,DOWN
'\'(145-190]\'','\'(325-370]\'',DOWN,EQUAL,True,True,False,True,DOWN,DOWN
'\'(235-280]\'','\'(145-190]\'',DOWN,RIGHT,True,False,True,True,RIGHT,RIGHT
'\'(190-235]\'','\'(55-100]\'',DOWN,RIGHT,True,True,True,False,UP,UP
'\'(280-325]\'','\'(-inf-55]\'',UP,RIGHT,True,False,True,False,UP,UP
'\'(370-415]\'','\'(145-190]\'',DOWN,RIGHT,True,False,True,True,RIGHT,RIGHT
'\'(370-415]\'','\'(-inf-55]\'',UP,RIGHT,True,True,True,False,UP,UP
'\'(325-370]\'','\'(415-inf)\'',DOWN,LEFT,True,True,False,True,DOWN,DOWN
'\'(370-415]\'','\'(235-280]\'',UP,RIGHT,True,False,True,True,RIGHT,RIGHT
'\'(235-280]\'','\'(145-190]\'',EQUAL,RIGHT,True,False,True,False,RIGHT,RIGHT
'\'(-inf-55]\'','\'(235-280]\'',UP,LEFT,True,False,True,True,RIGHT,RIGHT
'\'(415-inf)\'','\'(-inf-55]\'',DOWN,RIGHT,True,False,False,True,RIGHT,RIGHT
'\'(190-235]\'','\'(415-inf)\'',DOWN,RIGHT,True,False,True,True,RIGHT,RIGHT
'\'(55-100]\'','\'(145-190]\'',DOWN,EQUAL,True,True,False,True,DOWN,DOWN
'\'(100-145]\'','\'(-inf-55]\'',UP,EQUAL,True,True,True,False,UP,UP
'\'(55-100]\'','\'(325-370]\'',EQUAL,LEFT,False,True,True,True,LEFT,LEFT
'\'(55-100]\'','\'(-inf-55]\'',UP,LEFT,True,True,True,False,UP,UP
'\'(145-190]\'','\'(55-100]\'',UP,LEFT,True,True,True,False,UP,UP
'\'(-inf-55]\'','\'(325-370]\'',EQUAL,EQUAL,True,False,True,True,RIGHT,RIGHT
'\'(280-325]\'','\'(100-145]\'',UP,RIGHT,False,True,True,True,LEFT,LEFT
'\'(415-inf)\'','\'(-inf-55]\'',DOWN,RIGHT,True,False,False,True,RIGHT,RIGHT
'\'(415-inf)\'','\'(55-100]\'',UP,RIGHT,True,True,True,False,UP,UP
'\'(325-370]\'','\'(280-325]\'',UP,RIGHT,True,False,True,True,RIGHT,RIGHT
'\'(145-190]\'','\'(55-100]\'',DOWN,LEFT,False,True,True,True,LEFT,LEFT
'\'(145-190]\'','\'(370-415]\'',DOWN,LEFT,True,True,False,True,DOWN,DOWN
'\'(415-inf)\'','\'(325-370]\'',DOWN,RIGHT,True,False,True,True,RIGHT,RIGHT
'\'(-inf-55]\'','\'(415-inf)\'',DOWN,EQUAL,True,True,False,True,DOWN,DOWN
'\'(280-325]\'','\'(-inf-55]\'',UP,EQUAL,True,True,True,False,UP,UP
'\'(100-145]\'','\'(-inf-55]\'',DOWN,LEFT,False,True,False,True,LEFT,LEFT
'\'(-inf-55]\'','\'(235-280]\'',DOWN,LEFT,True,True,True,False,UP,RIGHT
'\'(370-415]\'','\'(145-190]\'',DOWN,LEFT,True,True,False,True,DOWN,DOWN
'\'(235-280]\'','\'(145-190]\'',DOWN,RIGHT,True,False,True,True,RIGHT,RIGHT
'\'(190-235]\'','\'(415-inf)\'',EQUAL,RIGHT,True,False,True,True,RIGHT,RIGHT
'\'(55-100]\'','\'(-inf-55]\'',UP,LEFT,True,True,False,True,DOWN,DOWN
'\'(-inf-55]\'','\'(370-415]\'',DOWN,LEFT,False,True,True,True,LEFT,LEFT
'\'(100-145]\'','\'(55-100]\'',EQUAL,LEFT,True,False,True,True,RIGHT,DOWN
'\'(-inf-55]\'','\'(325-370]\'',EQUAL,LEFT,False,True,True,True,LEFT,LEFT
'\'(370-415]\'','\'(55-100]\'',UP,RIGHT,True,True,True,False,UP,UP
'\'(235-280]\'','\'(415-inf)\'',EQUAL,LEFT,False,True,True,True,LEFT,LEFT
'\'(235-280]\'','\'(370-415]\'',UP,RIGHT,True,True,False,True,DOWN,DOWN
'\'(325-370]\'','\'(280-325]\'',UP,LEFT,False,True,True,True,LEFT,LEFT
'\'(325-370]\'','\'(415-inf)\'',DOWN,LEFT,True,True,False,True,DOWN,DOWN
'\'(-inf-55]\'','\'(370-415]\'',DOWN,LEFT,False,True,True,True,LEFT,LEFT
'\'(280-325]\'','\'(-inf-55]\'',UP,RIGHT,True,False,True,True,RIGHT,RIGHT
'\'(325-370]\'','\'(415-inf)\'',EQUAL,RIGHT,True,False,False,True,RIGHT,RIGHT
'\'(415-inf)\'','\'(-inf-55]\'',DOWN,EQUAL,True,False,False,True,RIGHT,DOWN
'\'(235-280]\'','\'(145-190]\'',DOWN,RIGHT,True,False,True,True,RIGHT,RIGHT
'\'(370-415]\'','\'(55-100]\'',DOWN,RIGHT,True,False,True,True,RIGHT,RIGHT
'\'(280-325]\'','\'(235-280]\'',UP,EQUAL,True,True,True,False,UP,UP
'\'(325-370]\'','\'(280-325]\'',EQUAL,LEFT,True,True,False,True,DOWN,DOWN
'\'(-inf-55]\'','\'(415-inf)\'',DOWN,EQUAL,True,True,False,True,DOWN,DOWN
'\'(370-415]\'','\'(190-235]\'',UP,EQUAL,True,True,True,False,UP,UP
'\'(415-inf)\'','\'(55-100]\'',EQUAL,RIGHT,True,True,True,False,UP,RIGHT
'\'(370-415]\'','\'(235-280]\'',UP,RIGHT,False,True,True,True,LEFT,LEFT
'\'(325-370]\'','\'(280-325]\'',DOWN,LEFT,True,True,False,True,DOWN,DOWN
'\'(190-235]\'','\'(325-370]\'',UP,RIGHT,True,False,True,True,RIGHT,RIGHT
'\'(55-100]\'','\'(370-415]\'',EQUAL,EQUAL,False,True,True,True,LEFT,LEFT
'\'(370-415]\'','\'(55-100]\'',UP,RIGHT,True,True,True,False,UP,UP
'\'(-inf-55]\'','\'(100-145]\'',UP,LEFT,True,True,False,True,DOWN,DOWN
'\'(280-325]\'','\'(235-280]\'',UP,EQUAL,True,True,True,False,UP,UP
'\'(415-inf)\'','\'(145-190]\'',UP,RIGHT,True,False,True,True,RIGHT,RIGHT
'\'(325-370]\'','\'(325-370]\'',DOWN,EQUAL,True,True,False,True,DOWN,DOWN
'\'(370-415]\'','\'(145-190]\'',UP,LEFT,True,True,False,True,DOWN,DOWN
'\'(-inf-55]\'','\'(190-235]\'',UP,LEFT,True,True,True,False,UP,UP
'\'(325-370]\'','\'(280-325]\'',DOWN,LEFT,True,True,False,True,DOWN,DOWN
'\'(145-190]\'','\'(415-inf)\'',DOWN,RIGHT,True,True,False,True,DOWN,DOWN
'\'(325-370]\'','\'(280-325]\'',DOWN,LEFT,True,True,False,True,DOWN,DOWN
'\'(-inf-55]\'','\'(415-inf)\'',DOWN,LEFT,True,False,True,True,RIGHT,DOWN
'\'(55-100]\'','\'(370-415]\'',DOWN,RIGHT,True,False,True,True,RIGHT,RIGHT
'\'(-inf-55]\'','\'(235-280]\'',UP,LEFT,False,True,True,True,LEFT,LEFT
'\'(-inf-55]\'','\'(370-415]\'',DOWN,RIGHT,True,True,False,True,DOWN,DOWN
'\'(55-100]\'','\'(-inf-55]\'',DOWN,LEFT,True,False,False,True,RIGHT,RIGHT
'\'(55-100]\'','\'(-inf-55]\'',UP,RIGHT,True,True,True,False,UP,UP
'\'(145-190]\'','\'(325-370]\'',DOWN,EQUAL,True,True,False,True,DOWN,DOWN
'\'(100-145]\'','\'(-inf-55]\'',UP,LEFT,True,False,True,True,RIGHT,RIGHT
'\'(145-190]\'','\'(55-100]\'',UP,LEFT,True,True,True,False,UP,UP
'\'(100-145]\'','\'(55-100]\'',UP,RIGHT,True,False,True,True,RIGHT,RIGHT
'\'(280-325]\'','\'(-inf-55]\'',UP,EQUAL,True,True,True,False,UP,UP
'\'(-inf-55]\'','\'(370-415]\'',DOWN,RIGHT,True,True,False,True,DOWN,DOWN
'\'(370-415]\'','\'(-inf-55]\'',UP,RIGHT,True,False,True,True,RIGHT,RIGHT
'\'(100-145]\'','\'(-inf-55]\'',DOWN,LEFT,False,True,True,True,LEFT,LEFT
'\'(100-145]\'','\'(55-100]\'',UP,LEFT,True,True,False,True,DOWN,RIGHT
'\'(235-280]\'','\'(370-415]\'',UP,RIGHT,True,True,False,True,DOWN,RIGHT
'\'(325-370]\'','\'(190-235]\'',DOWN,LEFT,False,True,True,False,UP,LEFT
'\'(-inf-55]\'','\'(235-280]\'',EQUAL,LEFT,False,True,True,True,LEFT,LEFT
'\'(325-370]\'','\'(190-235]\'',DOWN,RIGHT,True,True,False,True,DOWN,DOWN
'\'(100-145]\'','\'(-inf-55]\'',EQUAL,LEFT,False,True,True,True,LEFT,LEFT
'\'(280-325]\'','\'(100-145]\'',UP,LEFT,True,True,True,False,UP,UP
'\'(-inf-55]\'','\'(370-415]\'',DOWN,LEFT,True,True,True,False,UP,UP
'\'(-inf-55]\'','\'(190-235]\'',EQUAL,LEFT,False,True,True,True,LEFT,LEFT
'\'(145-190]\'','\'(415-inf)\'',DOWN,RIGHT,True,True,False,True,DOWN,DOWN
'\'(370-415]\'','\'(55-100]\'',DOWN,RIGHT,True,True,True,False,UP,UP
'\'(145-190]\'','\'(55-100]\'',UP,LEFT,True,True,True,False,UP,UP
'\'(-inf-55]\'','\'(370-415]\'',DOWN,RIGHT,True,True,False,True,DOWN,DOWN
'\'(280-325]\'','\'(325-370]\'',UP,RIGHT,True,True,True,False,UP,UP
'\'(190-235]\'','\'(415-inf)\'',UP,RIGHT,False,True,True,True,LEFT,LEFT
'\'(280-325]\'','\'(-inf-55]\'',UP,RIGHT,True,False,True,True,RIGHT,RIGHT
'\'(100-145]\'','\'(415-inf)\'',DOWN,RIGHT,True,True,False,True,DOWN,DOWN
'\'(55-100]\'','\'(-inf-55]\'',UP,LEFT,False,True,True,True,LEFT,LEFT
'\'(415-inf)\'','\'(415-inf)\'',DOWN,RIGHT,True,False,True,True,RIGHT,RIGHT
'\'(-inf-55]\'','\'(370-415]\'',DOWN,LEFT,True,True,True,False,UP,UP
'\'(235-280]\'','\'(100-145]\'',EQUAL,LEFT,True,True,False,True,DOWN,LEFT
'\'(280-325]\'','\'(235-280]\'',UP,RIGHT,True,False,True,False,RIGHT,RIGHT
'\'(370-415]\'','\'(145-190]\'',UP,EQUAL,False,True,True,False,UP,UP
'\'(-inf-55]\'','\'(370-415]\'',DOWN,RIGHT,True,True,False,True,DOWN,DOWN
'\'(370-415]\'','\'(55-100]\'',DOWN,RIGHT,True,False,True,True,RIGHT,RIGHT
'\'(280-325]\'','\'(235-280]\'',UP,RIGHT,True,False,True,False,RIGHT,RIGHT
'\'(325-370]\'','\'(280-325]\'',UP,RIGHT,True,False,True,True,RIGHT,RIGHT
'\'(235-280]\'','\'(145-190]\'',UP,RIGHT,False,True,True,True,LEFT,LEFT
'\'(415-inf)\'','\'(415-inf)\'',DOWN,RIGHT,True,False,True,True,RIGHT,RIGHT
'\'(-inf-55]\'','\'(235-280]\'',UP,LEFT,True,False,True,True,RIGHT,RIGHT
'\'(55-100]\'','\'(370-415]\'',DOWN,RIGHT,True,False,True,True,RIGHT,RIGHT
'\'(370-415]\'','\'(55-100]\'',UP,RIGHT,True,True,True,False,UP,UP
'\'(145-190]\'','\'(55-100]\'',DOWN,LEFT,False,True,True,True,LEFT,LEFT
'\'(55-100]\'','\'(325-370]\'',EQUAL,LEFT,False,True,True,True,LEFT,LEFT
'\'(145-190]\'','\'(325-370]\'',DOWN,EQUAL,True,True,False,True,DOWN,DOWN
'\'(-inf-55]\'','\'(235-280]\'',DOWN,LEFT,False,True,True,True,LEFT,LEFT
'\'(55-100]\'','\'(325-370]\'',EQUAL,EQUAL,True,False,True,True,RIGHT,RIGHT
'\'(145-190]\'','\'(55-100]\'',DOWN,LEFT,False,True,True,True,LEFT,LEFT
'\'(145-190]\'','\'(370-415]\'',DOWN,RIGHT,True,False,True,True,RIGHT,RIGHT
'\'(280-325]\'','\'(-inf-55]\'',UP,EQUAL,True,True,True,False,UP,UP
'\'(280-325]\'','\'(235-280]\'',UP,EQUAL,True,True,True,False,UP,UP
'\'(415-inf)\'','\'(280-325]\'',DOWN,RIGHT,True,False,True,True,RIGHT,RIGHT
'\'(-inf-55]\'','\'(235-280]\'',UP,LEFT,True,False,False,True,RIGHT,RIGHT
'\'(280-325]\'','\'(100-145]\'',UP,LEFT,True,True,True,False,UP,UP
'\'(415-inf)\'','\'(-inf-55]\'',UP,EQUAL,True,True,True,False,UP,UP
'\'(145-190]\'','\'(370-415]\'',DOWN,LEFT,True,True,False,True,DOWN,DOWN
'\'(-inf-55]\'','\'(415-inf)\'',DOWN,LEFT,True,False,True,True,RIGHT,RIGHT
'\'(145-190]\'','\'(55-100]\'',UP,LEFT,True,True,True,False,UP,UP
'\'(145-190]\'','\'(235-280]\'',DOWN,LEFT,False,True,True,True,LEFT,LEFT
'\'(145-190]\'','\'(370-415]\'',DOWN,RIGHT,True,True,True,False,UP,RIGHT
'\'(415-inf)\'','\'(235-280]\'',DOWN,RIGHT,True,False,True,True,RIGHT,RIGHT
'\'(370-415]\'','\'(235-280]\'',UP,RIGHT,True,True,True,False,UP,UP
'\'(145-190]\'','\'(370-415]\'',UP,RIGHT,False,True,True,True,LEFT,LEFT
'\'(415-inf)\'','\'(-inf-55]\'',UP,EQUAL,True,True,True,False,UP,UP
'\'(-inf-55]\'','\'(415-inf)\'',DOWN,LEFT,True,False,True,True,RIGHT,RIGHT
'\'(415-inf)\'','\'(280-325]\'',DOWN,RIGHT,True,False,True,True,RIGHT,RIGHT
'\'(55-100]\'','\'(370-415]\'',DOWN,RIGHT,False,True,True,True,LEFT,UP
'\'(190-235]\'','\'(415-inf)\'',UP,RIGHT,False,True,True,True,LEFT,LEFT
'\'(55-100]\'','\'(370-415]\'',DOWN,RIGHT,True,True,True,False,UP,UP
'\'(370-415]\'','\'(235-280]\'',UP,RIGHT,True,False,True,True,RIGHT,RIGHT
'\'(325-370]\'','\'(190-235]\'',EQUAL,RIGHT,True,True,False,True,DOWN,DOWN
'\'(-inf-55]\'','\'(235-280]\'',DOWN,LEFT,False,True,True,True,LEFT,LEFT
'\'(190-235]\'','\'(415-inf)\'',UP,RIGHT,False,True,True,True,LEFT,UP
'\'(100-145]\'','\'(415-inf)\'',DOWN,RIGHT,True,False,True,True,RIGHT,RIGHT
'\'(-inf-55]\'','\'(325-370]\'',EQUAL,LEFT,False,True,True,True,LEFT,LEFT
'\'(280-325]\'','\'(-inf-55]\'',UP,EQUAL,True,True,True,False,UP,UP
'\'(145-190]\'','\'(55-100]\'',UP,LEFT,True,True,True,False,UP,UP
'\'(235-280]\'','\'(370-415]\'',UP,RIGHT,True,False,True,True,RIGHT,RIGHT
'\'(280-325]\'','\'(100-145]\'',UP,EQUAL,True,False,True,True,RIGHT,RIGHT
'\'(145-190]\'','\'(235-280]\'',EQUAL,LEFT,False,True,True,True,LEFT,LEFT
'\'(100-145]\'','\'(55-100]\'',UP,EQUAL,True,True,True,False,UP,UP
'\'(235-280]\'','\'(145-190]\'',UP,RIGHT,False,True,True,True,LEFT,LEFT
'\'(55-100]\'','\'(-inf-55]\'',UP,LEFT,False,True,True,True,LEFT,LEFT
'\'(280-325]\'','\'(-inf-55]\'',UP,EQUAL,True,True,True,False,UP,UP
'\'(325-370]\'','\'(280-325]\'',DOWN,LEFT,True,True,False,True,DOWN,DOWN
'\'(235-280]\'','\'(145-190]\'',UP,RIGHT,True,False,True,True,RIGHT,RIGHT
'\'(100-145]\'','\'(415-inf)\'',DOWN,LEFT,True,True,False,True,DOWN,DOWN
'\'(415-inf)\'','\'(325-370]\'',EQUAL,EQUAL,True,False,True,True,RIGHT,RIGHT
'\'(-inf-55]\'','\'(325-370]\'',DOWN,LEFT,True,True,False,True,DOWN,DOWN
'\'(325-370]\'','\'(280-325]\'',UP,RIGHT,True,False,True,True,RIGHT,RIGHT
'\'(280-325]\'','\'(100-145]\'',UP,RIGHT,True,False,True,True,RIGHT,RIGHT
'\'(55-100]\'','\'(370-415]\'',DOWN,RIGHT,True,True,True,False,UP,UP
'\'(235-280]\'','\'(415-inf)\'',EQUAL,LEFT,False,True,True,True,LEFT,LEFT
'\'(280-325]\'','\'(-inf-55]\'',UP,RIGHT,True,False,True,True,RIGHT,RIGHT
'\'(-inf-55]\'','\'(370-415]\'',DOWN,EQUAL,True,True,False,True,DOWN,DOWN
'\'(100-145]\'','\'(55-100]\'',UP,EQUAL,True,True,True,False,UP,UP
'\'(145-190]\'','\'(325-370]\'',DOWN,EQUAL,True,True,False,True,DOWN,DOWN
'\'(55-100]\'','\'(-inf-55]\'',DOWN,LEFT,True,False,False,True,RIGHT,DOWN
'\'(55-100]\'','\'(325-370]\'',EQUAL,LEFT,False,True,True,True,LEFT,LEFT
'\'(190-235]\'','\'(415-inf)\'',DOWN,RIGHT,True,True,False,True,DOWN,DOWN
'\'(370-415]\'','\'(235-280]\'',UP,EQUAL,True,True,True,False,UP,UP
'\'(145-190]\'','\'(55-100]\'',DOWN,LEFT,False,True,True,True,LEFT,LEFT
'\'(325-370]\'','\'(190-235]\'',DOWN,RIGHT,False,True,True,True,LEFT,LEFT
'\'(55-100]\'','\'(-inf-55]\'',UP,RIGHT,True,True,True,False,UP,UP
'\'(190-235]\'','\'(55-100]\'',DOWN,RIGHT,True,True,True,False,UP,RIGHT
'\'(190-235]\'','\'(415-inf)\'',DOWN,RIGHT,True,False,True,True,RIGHT,RIGHT
'\'(100-145]\'','\'(55-100]\'',UP,EQUAL,True,True,True,False,UP,UP
'\'(325-370]\'','\'(190-235]\'',DOWN,RIGHT,True,True,False,True,DOWN,DOWN
'\'(325-370]\'','\'(280-325]\'',UP,RIGHT,True,False,True,True,RIGHT,RIGHT
'\'(370-415]\'','\'(190-235]\'',UP,LEFT,True,True,False,True,DOWN,LEFT
'\'(325-370]\'','\'(190-235]\'',UP,RIGHT,True,True,False,True,DOWN,RIGHT
'\'(-inf-55]\'','\'(370-415]\'',DOWN,LEFT,True,True,True,False,UP,UP
'\'(370-415]\'','\'(-inf-55]\'',UP,RIGHT,True,True,True,False,UP,UP
'\'(235-280]\'','\'(145-190]\'',DOWN,RIGHT,True,False,True,True,RIGHT,RIGHT
'\'(415-inf)\'','\'(280-325]\'',DOWN,RIGHT,True,False,True,True,RIGHT,RIGHT
'\'(190-235]\'','\'(415-inf)\'',UP,RIGHT,False,True,True,True,LEFT,LEFT
'\'(100-145]\'','\'(55-100]\'',UP,LEFT,True,False,True,True,RIGHT,UP
'\'(415-inf)\'','\'(235-280]\'',DOWN,RIGHT,True,False,True,True,RIGHT,RIGHT
'\'(325-370]\'','\'(415-inf)\'',DOWN,LEFT,True,True,False,True,DOWN,DOWN
'\'(280-325]\'','\'(-inf-55]\'',UP,EQUAL,True,True,True,False,UP,UP
'\'(145-190]\'','\'(415-inf)\'',DOWN,LEFT,True,True,True,False,UP,LEFT
'\'(100-145]\'','\'(-inf-55]\'',UP,LEFT,True,True,True,False,UP,UP
'\'(190-235]\'','\'(325-370]\'',UP,RIGHT,True,False,True,True,RIGHT,RIGHT
'\'(235-280]\'','\'(415-inf)\'',DOWN,LEFT,True,True,False,True,DOWN,DOWN
'\'(370-415]\'','\'(190-235]\'',UP,EQUAL,True,True,True,False,UP,UP
'\'(280-325]\'','\'(-inf-55]\'',UP,RIGHT,True,False,True,True,RIGHT,RIGHT
'\'(190-235]\'','\'(325-370]\'',UP,EQUAL,True,False,True,True,RIGHT,UP
'\'(415-inf)\'','\'(-inf-55]\'',UP,RIGHT,True,False,True,True,RIGHT,RIGHT
'\'(55-100]\'','\'(370-415]\'',DOWN,LEFT,True,False,True,True,RIGHT,RIGHT
'\'(-inf-55]\'','\'(370-415]\'',UP,LEFT,True,False,True,True,RIGHT,RIGHT
'\'(100-145]\'','\'(415-inf)\'',DOWN,RIGHT,True,True,False,True,DOWN,DOWN
'\'(145-190]\'','\'(145-190]\'',DOWN,LEFT,False,True,True,True,LEFT,LEFT
'\'(145-190]\'','\'(55-100]\'',DOWN,LEFT,False,True,True,True,LEFT,LEFT
'\'(145-190]\'','\'(325-370]\'',DOWN,EQUAL,True,True,False,True,DOWN,DOWN
'\'(100-145]\'','\'(415-inf)\'',DOWN,RIGHT,False,True,True,True,LEFT,LEFT
'\'(-inf-55]\'','\'(325-370]\'',EQUAL,LEFT,False,True,True,True,LEFT,LEFT
'\'(-inf-55]\'','\'(370-415]\'',DOWN,LEFT,False,True,True,True,LEFT,LEFT
'\'(370-415]\'','\'(235-280]\'',UP,LEFT,True,True,False,True,DOWN,LEFT
'\'(55-100]\'','\'(370-415]\'',DOWN,RIGHT,True,True,True,False,UP,UP
'\'(-inf-55]\'','\'(325-370]\'',EQUAL,LEFT,False,True,True,True,LEFT,LEFT
'\'(280-325]\'','\'(-inf-55]\'',UP,RIGHT,True,False,True,True,RIGHT,RIGHT
'\'(-inf-55]\'','\'(370-415]\'',DOWN,LEFT,False,True,True,True,LEFT,LEFT
'\'(145-190]\'','\'(235-280]\'',DOWN,LEFT,False,True,True,True,LEFT,LEFT
'\'(190-235]\'','\'(415-inf)\'',DOWN,RIGHT,True,False,True,True,RIGHT,DOWN
'\'(145-190]\'','\'(145-190]\'',DOWN,RIGHT,True,True,False,True,DOWN,RIGHT
'\'(415-inf)\'','\'(415-inf)\'',DOWN,RIGHT,True,True,False,True,DOWN,DOWN
'\'(100-145]\'','\'(55-100]\'',UP,RIGHT,True,True,True,False,UP,UP
'\'(415-inf)\'','\'(415-inf)\'',DOWN,RIGHT,True,False,True,True,RIGHT,RIGHT
'\'(55-100]\'','\'(-inf-55]\'',DOWN,RIGHT,True,False,False,True,RIGHT,RIGHT
'\'(415-inf)\'','\'(280-325]\'',DOWN,RIGHT,True,False,True,True,RIGHT,RIGHT
'\'(370-415]\'','\'(145-190]\'',DOWN,EQUAL,True,False,True,True,RIGHT,RIGHT
'\'(100-145]\'','\'(-inf-55]\'',UP,LEFT,True,True,True,False,UP,UP
'\'(280-325]\'','\'(-inf-55]\'',UP,EQUAL,True,True,True,False,UP,UP
'\'(415-inf)\'','\'(-inf-55]\'',DOWN,RIGHT,True,False,False,True,RIGHT,RIGHT
'\'(280-325]\'','\'(-inf-55]\'',UP,EQUAL,True,True,True,False,UP,UP
'\'(190-235]\'','\'(55-100]\'',EQUAL,RIGHT,True,False,True,True,RIGHT,RIGHT
'\'(370-415]\'','\'(235-280]\'',UP,LEFT,True,True,False,True,DOWN,DOWN
'\'(370-415]\'','\'(235-280]\'',EQUAL,EQUAL,True,True,False,True,DOWN,DOWN
'\'(280-325]\'','\'(235-280]\'',UP,RIGHT,True,False,True,False,RIGHT,RIGHT
'\'(-inf-55]\'','\'(370-415]\'',DOWN,LEFT,True,True,True,False,UP,UP
'\'(100-145]\'','\'(-inf-55]\'',EQUAL,LEFT,False,True,True,True,LEFT,LEFT
'\'(145-190]\'','\'(415-inf)\'',DOWN,LEFT,False,True,True,True,LEFT,LEFT
'\'(190-235]\'','\'(325-370]\'',UP,RIGHT,True,False,True,True,RIGHT,RIGHT
'\'(370-415]\'','\'(-inf-55]\'',UP,RIGHT,True,True,True,False,UP,RIGHT
'\'(-inf-55]\'','\'(190-235]\'',EQUAL,LEFT,False,True,True,True,LEFT,LEFT
'\'(370-415]\'','\'(235-280]\'',UP,RIGHT,True,False,True,True,RIGHT,RIGHT
'\'(235-280]\'','\'(370-415]\'',UP,RIGHT,True,True,False,True,DOWN,DOWN
'\'(55-100]\'','\'(370-415]\'',DOWN,LEFT,True,False,True,True,RIGHT,RIGHT
'\'(55-100]\'','\'(325-370]\'',DOWN,LEFT,True,True,False,True,DOWN,DOWN
'\'(190-235]\'','\'(325-370]\'',UP,RIGHT,True,False,True,True,RIGHT,RIGHT
'\'(325-370]\'','\'(190-235]\'',DOWN,RIGHT,False,True,True,True,LEFT,LEFT
'\'(-inf-55]\'','\'(415-inf)\'',EQUAL,EQUAL,True,False,True,True,RIGHT,RIGHT
'\'(235-280]\'','\'(145-190]\'',DOWN,RIGHT,True,False,True,True,RIGHT,RIGHT
'\'(415-inf)\'','\'(55-100]\'',UP,RIGHT,True,True,True,False,UP,UP
'\'(145-190]\'','\'(145-190]\'',DOWN,RIGHT,True,True,False,True,DOWN,DOWN
'\'(55-100]\'','\'(-inf-55]\'',UP,LEFT,False,True,True,True,LEFT,LEFT
'\'(325-370]\'','\'(280-325]\'',UP,EQUAL,False,True,True,True,LEFT,UP
'\'(55-100]\'','\'(145-190]\'',DOWN,LEFT,False,True,True,True,LEFT,LEFT
'\'(280-325]\'','\'(100-145]\'',UP,LEFT,True,True,True,False,UP,UP
'\'(100-145]\'','\'(-inf-55]\'',UP,EQUAL,True,False,True,False,UP,UP
'\'(325-370]\'','\'(190-235]\'',DOWN,LEFT,False,True,True,True,LEFT,LEFT
'\'(145-190]\'','\'(325-370]\'',DOWN,EQUAL,True,True,False,True,DOWN,DOWN
'\'(370-415]\'','\'(235-280]\'',UP,RIGHT,True,False,True,True,RIGHT,RIGHT
'\'(100-145]\'','\'(-inf-55]\'',DOWN,LEFT,False,True,True,True,LEFT,LEFT
'\'(415-inf)\'','\'(325-370]\'',DOWN,EQUAL,True,False,True,True,RIGHT,DOWN
'\'(-inf-55]\'','\'(235-280]\'',UP,LEFT,False,True,True,True,LEFT,LEFT
'\'(280-325]\'','\'(-inf-55]\'',UP,RIGHT,True,True,True,False,UP,UP
'\'(-inf-55]\'','\'(325-370]\'',DOWN,LEFT,True,True,False,True,DOWN,DOWN
'\'(370-415]\'','\'(235-280]\'',UP,RIGHT,False,True,True,True,LEFT,UP
'\'(415-inf)\'','\'(-inf-55]\'',DOWN,RIGHT,True,False,False,True,RIGHT,RIGHT
'\'(145-190]\'','\'(55-100]\'',UP,RIGHT,True,True,False,True,DOWN,DOWN
'\'(100-145]\'','\'(415-inf)\'',DOWN,LEFT,False,True,True,True,LEFT,LEFT
'\'(55-100]\'','\'(-inf-55]\'',EQUAL,EQUAL,False,True,True,True,LEFT,LEFT
'\'(415-inf)\'','\'(280-325]\'',DOWN,RIGHT,True,False,True,True,RIGHT,RIGHT
'\'(-inf-55]\'','\'(370-415]\'',EQUAL,LEFT,False,True,True,False,LEFT,LEFT
'\'(55-100]\'','\'(370-415]\'',DOWN,RIGHT,True,True,False,True,DOWN,DOWN
'\'(-inf-55]\'','\'(370-415]\'',DOWN,LEFT,False,True,True,True,LEFT,LEFT
'\'(235-280]\'','\'(370-415]\'',UP,RIGHT,True,False,True,True,RIGHT,RIGHT
'\'(100-145]\'','\'(-inf-55]\'',DOWN,LEFT,False,True,True,True,LEFT,LEFT
'\'(100-145]\'','\'(55-100]\'',UP,LEFT,True,True,False,True,DOWN,DOWN
'\'(145-190]\'','\'(415-inf)\'',DOWN,LEFT,False,True,True,True,LEFT,LEFT
'\'(370-415]\'','\'(190-235]\'',UP,LEFT,False,True,True,True,LEFT,LEFT
'\'(145-190]\'','\'(55-100]\'',DOWN,LEFT,False,True,True,True,LEFT,LEFT
'\'(280-325]\'','\'(100-145]\'',DOWN,RIGHT,True,True,True,False,UP,UP
'\'(280-325]\'','\'(100-145]\'',DOWN,RIGHT,True,True,True,False,UP,UP
'\'(280-325]\'','\'(100-145]\'',DOWN,EQUAL,True,False,True,True,RIGHT,DOWN
'\'(235-280]\'','\'(145-190]\'',DOWN,RIGHT,True,False,True,True,RIGHT,DOWN
'\'(325-370]\'','\'(190-235]\'',DOWN,EQUAL,False,True,True,True,LEFT,LEFT
'\'(145-190]\'','\'(235-280]\'',EQUAL,LEFT,False,True,True,True,LEFT,LEFT
'\'(145-190]\'','\'(145-190]\'',DOWN,RIGHT,True,True,False,True,DOWN,DOWN
'\'(-inf-55]\'','\'(370-415]\'',DOWN,EQUAL,True,True,False,True,DOWN,DOWN
'\'(145-190]\'','\'(145-190]\'',DOWN,LEFT,False,True,True,True,LEFT,LEFT
'\'(190-235]\'','\'(325-370]\'',UP,EQUAL,True,True,True,False,UP,UP
'\'(235-280]\'','\'(415-inf)\'',DOWN,LEFT,True,True,False,True,DOWN,DOWN
'\'(-inf-55]\'','\'(370-415]\'',DOWN,LEFT,False,True,True,True,LEFT,LEFT
'\'(280-325]\'','\'(-inf-55]\'',UP,EQUAL,True,True,True,False,UP,UP
'\'(235-280]\'','\'(190-235]\'',UP,EQUAL,False,True,True,True,LEFT,UP
'\'(325-370]\'','\'(280-325]\'',DOWN,LEFT,True,True,False,True,DOWN,DOWN
'\'(55-100]\'','\'(-inf-55]\'',UP,RIGHT,False,True,True,True,LEFT,LEFT
'\'(415-inf)\'','\'(415-inf)\'',DOWN,RIGHT,True,True,False,True,DOWN,DOWN
'\'(325-370]\'','\'(415-inf)\'',DOWN,LEFT,True,True,False,True,DOWN,DOWN
'\'(145-190]\'','\'(235-280]\'',UP,LEFT,True,True,True,False,UP,UP
'\'(325-370]\'','\'(190-235]\'',DOWN,RIGHT,True,False,False,True,RIGHT,RIGHT
'\'(280-325]\'','\'(100-145]\'',UP,LEFT,True,True,True,False,UP,UP
'\'(145-190]\'','\'(235-280]\'',EQUAL,LEFT,False,True,True,True,LEFT,LEFT
'\'(145-190]\'','\'(370-415]\'',UP,RIGHT,False,True,True,True,LEFT,LEFT
'\'(-inf-55]\'','\'(415-inf)\'',DOWN,LEFT,False,True,True,True,LEFT,LEFT
'\'(-inf-55]\'','\'(235-280]\'',DOWN,LEFT,False,True,True,True,LEFT,LEFT
'\'(-inf-55]\'','\'(100-145]\'',UP,EQUAL,False,True,True,False,UP,UP
'\'(415-inf)\'','\'(235-280]\'',DOWN,RIGHT,True,False,True,True,RIGHT,DOWN
'\'(55-100]\'','\'(145-190]\'',DOWN,LEFT,False,True,True,True,LEFT,LEFT
'\'(415-inf)\'','\'(280-325]\'',DOWN,RIGHT,True,False,True,True,RIGHT,RIGHT
'\'(55-100]\'','\'(-inf-55]\'',UP,LEFT,False,True,True,True,LEFT,LEFT
'\'(280-325]\'','\'(235-280]\'',UP,RIGHT,True,False,True,False,RIGHT,RIGHT
'\'(370-415]\'','\'(235-280]\'',UP,LEFT,False,True,True,True,LEFT,LEFT
'\'(415-inf)\'','\'(415-inf)\'',DOWN,RIGHT,True,False,True,True,RIGHT,RIGHT
'\'(370-415]\'','\'(190-235]\'',UP,EQUAL,True,True,True,False,UP,UP
'\'(415-inf)\'','\'(325-370]\'',DOWN,RIGHT,True,False,True,True,RIGHT,RIGHT
'\'(235-280]\'','\'(415-inf)\'',EQUAL,LEFT,False,True,True,True,LEFT,LEFT
'\'(55-100]\'','\'(-inf-55]\'',UP,LEFT,True,True,True,False,UP,UP
'\'(55-100]\'','\'(-inf-55]\'',EQUAL,LEFT,True,True,False,True,DOWN,DOWN
'\'(100-145]\'','\'(55-100]\'',UP,RIGHT,True,True,True,False,UP,UP
'\'(145-190]\'','\'(145-190]\'',DOWN,RIGHT,True,True,False,True,DOWN,DOWN
'\'(280-325]\'','\'(235-280]\'',UP,EQUAL,True,True,True,False,UP,UP
'\'(145-190]\'','\'(235-280]\'',DOWN,LEFT,False,True,True,True,LEFT,LEFT
'\'(-inf-55]\'','\'(370-415]\'',DOWN,LEFT,False,True,True,True,LEFT,LEFT
'\'(280-325]\'','\'(-inf-55]\'',UP,RIGHT,True,True,True,False,UP,UP
'\'(145-190]\'','\'(415-inf)\'',DOWN,RIGHT,True,True,False,True,DOWN,DOWN
'\'(190-235]\'','\'(55-100]\'',EQUAL,EQUAL,False,True,True,False,UP,UP
'\'(100-145]\'','\'(415-inf)\'',EQUAL,EQUAL,False,True,True,True,LEFT,LEFT
'\'(100-145]\'','\'(-inf-55]\'',DOWN,LEFT,False,True,True,True,LEFT,LEFT
'\'(280-325]\'','\'(-inf-55]\'',UP,RIGHT,True,False,True,True,RIGHT,RIGHT
'\'(370-415]\'','\'(-inf-55]\'',UP,RIGHT,True,False,True,True,RIGHT,RIGHT
'\'(-inf-55]\'','\'(415-inf)\'',DOWN,LEFT,False,True,True,True,LEFT,LEFT
'\'(145-190]\'','\'(370-415]\'',UP,RIGHT,False,True,True,True,LEFT,LEFT
'\'(325-370]\'','\'(190-235]\'',DOWN,RIGHT,False,True,True,True,LEFT,LEFT
'\'(280-325]\'','\'(235-280]\'',UP,RIGHT,True,False,True,False,RIGHT,RIGHT
'\'(235-280]\'','\'(145-190]\'',DOWN,EQUAL,True,False,True,True,RIGHT,RIGHT
'\'(415-inf)\'','\'(55-100]\'',EQUAL,RIGHT,True,False,True,True,RIGHT,RIGHT
'\'(235-280]\'','\'(145-190]\'',UP,RIGHT,True,True,True,False,UP,UP
'\'(325-370]\'','\'(190-235]\'',DOWN,LEFT,True,True,True,False,UP,UP
'\'(415-inf)\'','\'(145-190]\'',UP,RIGHT,True,False,True,True,RIGHT,RIGHT
'\'(145-190]\'','\'(370-415]\'',UP,RIGHT,False,True,True,True,LEFT,LEFT
'\'(145-190]\'','\'(235-280]\'',DOWN,LEFT,True,True,True,False,UP,UP
'\'(235-280]\'','\'(145-190]\'',DOWN,RIGHT,True,False,True,True,RIGHT,RIGHT
'\'(55-100]\'','\'(370-415]\'',DOWN,LEFT,False,True,True,True,LEFT,LEFT
'\'(280-325]\'','\'(235-280]\'',UP,RIGHT,True,False,True,False,RIGHT,RIGHT
'\'(-inf-55]\'','\'(235-280]\'',UP,LEFT,False,True,True,True,LEFT,LEFT
'\'(-inf-55]\'','\'(190-235]\'',EQUAL,LEFT,False,True,True,True,LEFT,LEFT
'\'(-inf-55]\'','\'(370-415]\'',DOWN,LEFT,False,True,True,True,LEFT,LEFT
'\'(325-370]\'','\'(280-325]\'',UP,RIGHT,True,False,True,True,RIGHT,RIGHT
'\'(145-190]\'','\'(55-100]\'',UP,RIGHT,True,True,False,True,DOWN,DOWN
'\'(145-190]\'','\'(325-370]\'',DOWN,EQUAL,True,True,False,True,DOWN,DOWN
'\'(145-190]\'','\'(55-100]\'',DOWN,RIGHT,True,True,False,True,DOWN,DOWN
'\'(235-280]\'','\'(370-415]\'',UP,EQUAL,True,False,True,True,RIGHT,UP
'\'(55-100]\'','\'(370-415]\'',DOWN,RIGHT,True,True,True,False,UP,UP
'\'(190-235]\'','\'(415-inf)\'',DOWN,RIGHT,True,False,True,True,RIGHT,RIGHT
'\'(100-145]\'','\'(55-100]\'',UP,LEFT,False,True,True,True,LEFT,LEFT
'\'(415-inf)\'','\'(-inf-55]\'',DOWN,RIGHT,True,False,False,True,RIGHT,RIGHT
'\'(145-190]\'','\'(325-370]\'',DOWN,EQUAL,True,True,False,True,DOWN,DOWN
'\'(190-235]\'','\'(55-100]\'',EQUAL,RIGHT,True,False,True,True,RIGHT,RIGHT
'\'(235-280]\'','\'(145-190]\'',UP,RIGHT,True,False,True,True,RIGHT,RIGHT
'\'(325-370]\'','\'(280-325]\'',DOWN,LEFT,True,True,False,True,DOWN,DOWN
'\'(-inf-55]\'','\'(415-inf)\'',DOWN,LEFT,False,True,True,True,LEFT,LEFT
'\'(55-100]\'','\'(325-370]\'',DOWN,LEFT,True,True,False,True,DOWN,DOWN
'\'(145-190]\'','\'(415-inf)\'',DOWN,RIGHT,True,True,False,True,DOWN,DOWN
'\'(235-280]\'','\'(145-190]\'',DOWN,LEFT,True,True,False,True,DOWN,DOWN
'\'(55-100]\'','\'(-inf-55]\'',UP,RIGHT,False,True,True,True,LEFT,LEFT
'\'(145-190]\'','\'(325-370]\'',DOWN,EQUAL,True,True,False,True,DOWN,DOWN
'\'(370-415]\'','\'(235-280]\'',UP,LEFT,False,True,True,True,LEFT,LEFT
'\'(100-145]\'','\'(55-100]\'',UP,LEFT,False,True,True,True,LEFT,LEFT
'\'(-inf-55]\'','\'(370-415]\'',DOWN,EQUAL,True,True,False,True,DOWN,DOWN
'\'(325-370]\'','\'(280-325]\'',UP,RIGHT,True,False,True,True,RIGHT,RIGHT
'\'(-inf-55]\'','\'(100-145]\'',UP,LEFT,True,True,False,True,DOWN,LEFT
'\'(370-415]\'','\'(190-235]\'',UP,EQUAL,True,True,True,False,UP,UP
'\'(325-370]\'','\'(280-325]\'',DOWN,LEFT,True,True,False,True,DOWN,DOWN
'\'(235-280]\'','\'(370-415]\'',UP,RIGHT,True,False,True,True,RIGHT,RIGHT
'\'(-inf-55]\'','\'(235-280]\'',DOWN,LEFT,False,True,True,True,LEFT,LEFT
'\'(325-370]\'','\'(280-325]\'',UP,RIGHT,True,False,True,True,RIGHT,RIGHT
'\'(145-190]\'','\'(325-370]\'',DOWN,RIGHT,True,False,True,True,RIGHT,RIGHT
'\'(-inf-55]\'','\'(100-145]\'',UP,LEFT,True,True,False,True,DOWN,DOWN
'\'(100-145]\'','\'(55-100]\'',UP,RIGHT,True,True,True,False,UP,UP
'\'(280-325]\'','\'(-inf-55]\'',UP,EQUAL,True,True,True,False,UP,UP
'\'(190-235]\'','\'(55-100]\'',EQUAL,RIGHT,True,False,True,True,RIGHT,RIGHT
'\'(235-280]\'','\'(145-190]\'',DOWN,RIGHT,True,False,True,True,RIGHT,RIGHT
'\'(190-235]\'','\'(415-inf)\'',UP,LEFT,True,True,False,True,DOWN,LEFT
'\'(-inf-55]\'','\'(370-415]\'',DOWN,LEFT,False,True,True,True,LEFT,LEFT
'\'(-inf-55]\'','\'(370-415]\'',UP,LEFT,True,False,True,True,RIGHT,RIGHT
'\'(325-370]\'','\'(415-inf)\'',DOWN,LEFT,True,True,False,True,DOWN,DOWN
'\'(325-370]\'','\'(280-325]\'',DOWN,LEFT,True,True,False,True,DOWN,DOWN
'\'(55-100]\'','\'(325-370]\'',DOWN,LEFT,True,True,False,True,DOWN,DOWN
'\'(280-325]\'','\'(100-145]\'',UP,LEFT,True,True,True,False,UP,UP
'\'(145-190]\'','\'(415-inf)\'',DOWN,RIGHT,True,True,False,True,DOWN,DOWN
'\'(100-145]\'','\'(55-100]\'',UP,RIGHT,True,True,True,False,UP,UP
'\'(235-280]\'','\'(145-190]\'',UP,RIGHT,True,False,True,True,RIGHT,RIGHT
'\'(370-415]\'','\'(190-235]\'',UP,LEFT,False,True,True,True,LEFT,LEFT
'\'(190-235]\'','\'(415-inf)\'',DOWN,RIGHT,True,True,False,True,DOWN,DOWN
'\'(100-145]\'','\'(55-100]\'',UP,EQUAL,True,True,True,False,UP,UP
'\'(-inf-55]\'','\'(235-280]\'',DOWN,LEFT,True,True,False,True,DOWN,DOWN
'\'(100-145]\'','\'(55-100]\'',UP,LEFT,False,True,True,True,LEFT,LEFT
'\'(-inf-55]\'','\'(325-370]\'',EQUAL,LEFT,False,True,True,True,LEFT,LEFT
'\'(280-325]\'','\'(100-145]\'',UP,LEFT,True,True,True,False,UP,UP
'\'(325-370]\'','\'(415-inf)\'',DOWN,LEFT,True,True,False,True,DOWN,DOWN
'\'(235-280]\'','\'(145-190]\'',DOWN,LEFT,True,False,True,True,RIGHT,DOWN
'\'(370-415]\'','\'(235-280]\'',UP,RIGHT,True,False,True,True,RIGHT,RIGHT
'\'(325-370]\'','\'(415-inf)\'',DOWN,RIGHT,False,True,True,True,LEFT,LEFT
'\'(190-235]\'','\'(415-inf)\'',UP,RIGHT,False,True,True,True,LEFT,LEFT
'\'(415-inf)\'','\'(415-inf)\'',DOWN,RIGHT,True,False,True,True,RIGHT,RIGHT
'\'(235-280]\'','\'(145-190]\'',DOWN,RIGHT,True,True,False,True,DOWN,RIGHT
'\'(280-325]\'','\'(100-145]\'',UP,RIGHT,False,True,True,True,LEFT,UP
'\'(-inf-55]\'','\'(190-235]\'',UP,LEFT,True,True,True,False,UP,UP
'\'(145-190]\'','\'(415-inf)\'',DOWN,LEFT,False,True,True,True,LEFT,LEFT
'\'(100-145]\'','\'(-inf-55]\'',UP,LEFT,True,True,True,False,UP,UP
'\'(235-280]\'','\'(145-190]\'',EQUAL,EQUAL,True,True,False,True,DOWN,DOWN
'\'(-inf-55]\'','\'(325-370]\'',EQUAL,LEFT,False,True,True,True,LEFT,LEFT
'\'(145-190]\'','\'(145-190]\'',DOWN,EQUAL,True,True,False,True,DOWN,DOWN
'\'(-inf-55]\'','\'(190-235]\'',EQUAL,LEFT,False,True,True,True,LEFT,LEFT
'\'(55-100]\'','\'(370-415]\'',DOWN,LEFT,True,False,True,True,RIGHT,DOWN
'\'(235-280]\'','\'(145-190]\'',DOWN,RIGHT,True,True,True,False,UP,RIGHT
'\'(325-370]\'','\'(190-235]\'',DOWN,EQUAL,True,False,False,True,RIGHT,DOWN
'\'(55-100]\'','\'(-inf-55]\'',UP,LEFT,False,True,True,True,LEFT,LEFT
'\'(-inf-55]\'','\'(235-280]\'',DOWN,LEFT,False,True,True,True,LEFT,LEFT
'\'(-inf-55]\'','\'(370-415]\'',DOWN,LEFT,False,True,True,True,LEFT,LEFT
'\'(415-inf)\'','\'(415-inf)\'',DOWN,RIGHT,True,True,False,True,DOWN,DOWN
'\'(-inf-55]\'','\'(370-415]\'',EQUAL,LEFT,False,True,True,False,LEFT,LEFT
'\'(145-190]\'','\'(415-inf)\'',DOWN,RIGHT,True,True,False,True,DOWN,DOWN
'\'(55-100]\'','\'(-inf-55]\'',UP,EQUAL,True,True,True,False,UP,UP
'\'(415-inf)\'','\'(280-325]\'',DOWN,RIGHT,True,True,False,True,DOWN,DOWN
'\'(-inf-55]\'','\'(235-280]\'',EQUAL,LEFT,True,True,True,False,UP,UP
'\'(235-280]\'','\'(145-190]\'',DOWN,RIGHT,True,False,True,True,RIGHT,DOWN
'\'(145-190]\'','\'(325-370]\'',DOWN,EQUAL,True,True,False,True,DOWN,DOWN
'\'(415-inf)\'','\'(415-inf)\'',EQUAL,EQUAL,False,True,True,True,LEFT,LEFT
'\'(55-100]\'','\'(-inf-55]\'',UP,LEFT,False,True,True,True,LEFT,LEFT
'\'(415-inf)\'','\'(325-370]\'',DOWN,EQUAL,True,True,False,True,DOWN,DOWN
'\'(-inf-55]\'','\'(415-inf)\'',EQUAL,EQUAL,False,True,True,True,LEFT,LEFT
'\'(235-280]\'','\'(370-415]\'',UP,RIGHT,True,False,True,True,RIGHT,RIGHT
'\'(415-inf)\'','\'(280-325]\'',DOWN,RIGHT,True,False,True,True,RIGHT,RIGHT
'\'(55-100]\'','\'(-inf-55]\'',UP,RIGHT,True,True,True,False,UP,UP
'\'(415-inf)\'','\'(235-280]\'',DOWN,RIGHT,True,False,True,True,RIGHT,RIGHT
'\'(-inf-55]\'','\'(100-145]\'',UP,EQUAL,False,True,True,False,UP,UP
'\'(325-370]\'','\'(190-235]\'',DOWN,RIGHT,True,False,False,True,RIGHT,RIGHT
'\'(145-190]\'','\'(55-100]\'',UP,EQUAL,True,True,True,False,UP,UP
'\'(100-145]\'','\'(415-inf)\'',DOWN,RIGHT,True,True,False,True,DOWN,DOWN
'\'(370-415]\'','\'(55-100]\'',UP,RIGHT,True,True,True,False,UP,UP
'\'(370-415]\'','\'(145-190]\'',DOWN,LEFT,True,True,False,True,DOWN,DOWN
'\'(100-145]\'','\'(-inf-55]\'',EQUAL,LEFT,True,True,True,False,UP,UP
'\'(145-190]\'','\'(55-100]\'',EQUAL,RIGHT,True,False,True,True,RIGHT,RIGHT
'\'(280-325]\'','\'(235-280]\'',UP,EQUAL,True,True,True,False,UP,UP
'\'(55-100]\'','\'(145-190]\'',DOWN,LEFT,True,True,True,False,UP,UP
'\'(325-370]\'','\'(280-325]\'',UP,RIGHT,True,False,True,True,RIGHT,RIGHT
'\'(145-190]\'','\'(55-100]\'',UP,LEFT,True,True,True,False,UP,UP
'\'(55-100]\'','\'(325-370]\'',DOWN,LEFT,True,True,False,True,DOWN,DOWN
'\'(370-415]\'','\'(55-100]\'',UP,RIGHT,True,True,True,False,UP,UP
'\'(370-415]\'','\'(55-100]\'',DOWN,RIGHT,True,False,True,True,RIGHT,RIGHT
'\'(-inf-55]\'','\'(190-235]\'',EQUAL,LEFT,False,True,True,True,LEFT,LEFT
'\'(145-190]\'','\'(325-370]\'',DOWN,RIGHT,True,False,True,True,RIGHT,RIGHT
'\'(325-370]\'','\'(190-235]\'',DOWN,EQUAL,True,True,False,True,DOWN,DOWN
'\'(280-325]\'','\'(235-280]\'',UP,RIGHT,True,False,True,False,RIGHT,RIGHT
'\'(-inf-55]\'','\'(235-280]\'',UP,LEFT,True,False,False,True,RIGHT,RIGHT
'\'(145-190]\'','\'(145-190]\'',DOWN,LEFT,False,True,True,True,LEFT,LEFT
'\'(-inf-55]\'','\'(415-inf)\'',DOWN,EQUAL,True,True,False,True,DOWN,DOWN
'\'(-inf-55]\'','\'(325-370]\'',DOWN,LEFT,True,True,False,True,DOWN,DOWN
'\'(100-145]\'','\'(55-100]\'',UP,RIGHT,True,True,True,False,UP,UP
'\'(55-100]\'','\'(325-370]\'',EQUAL,LEFT,False,True,True,True,LEFT,LEFT
'\'(145-190]\'','\'(55-100]\'',EQUAL,EQUAL,False,True,True,True,LEFT,LEFT
'\'(235-280]\'','\'(415-inf)\'',DOWN,LEFT,True,True,False,True,DOWN,DOWN
'\'(55-100]\'','\'(370-415]\'',DOWN,EQUAL,True,True,False,True,DOWN,DOWN
'\'(415-inf)\'','\'(145-190]\'',UP,RIGHT,True,True,False,True,DOWN,RIGHT
'\'(-inf-55]\'','\'(190-235]\'',UP,LEFT,True,True,True,False,UP,UP
'\'(55-100]\'','\'(-inf-55]\'',UP,RIGHT,True,True,True,False,UP,UP
'\'(55-100]\'','\'(370-415]\'',DOWN,RIGHT,True,False,True,True,RIGHT,RIGHT
'\'(-inf-55]\'','\'(415-inf)\'',DOWN,EQUAL,True,True,False,True,DOWN,DOWN
'\'(325-370]\'','\'(190-235]\'',DOWN,RIGHT,True,False,False,True,RIGHT,RIGHT
'\'(100-145]\'','\'(55-100]\'',EQUAL,EQUAL,False,True,True,True,LEFT,LEFT
'\'(280-325]\'','\'(100-145]\'',UP,RIGHT,True,False,True,True,RIGHT,RIGHT
'\'(100-145]\'','\'(-inf-55]\'',EQUAL,RIGHT,True,True,False,True,DOWN,DOWN
'\'(55-100]\'','\'(325-370]\'',EQUAL,LEFT,True,True,False,True,DOWN,LEFT
'\'(145-190]\'','\'(325-370]\'',DOWN,EQUAL,True,True,False,True,DOWN,DOWN
'\'(100-145]\'','\'(415-inf)\'',DOWN,RIGHT,True,True,False,True,DOWN,DOWN
'\'(145-190]\'','\'(325-370]\'',DOWN,RIGHT,True,False,True,True,RIGHT,RIGHT
'\'(100-145]\'','\'(55-100]\'',UP,LEFT,True,True,False,True,DOWN,DOWN
'\'(235-280]\'','\'(415-inf)\'',EQUAL,LEFT,False,True,True,True,LEFT,LEFT
'\'(415-inf)\'','\'(280-325]\'',DOWN,RIGHT,True,False,True,True,RIGHT,RIGHT
'\'(55-100]\'','\'(-inf-55]\'',UP,EQUAL,True,True,True,False,UP,UP
'\'(415-inf)\'','\'(-inf-55]\'',DOWN,RIGHT,True,False,False,True,RIGHT,RIGHT
'\'(55-100]\'','\'(-inf-55]\'',UP,LEFT,True,True,True,False,UP,UP
'\'(-inf-55]\'','\'(415-inf)\'',DOWN,EQUAL,True,True,False,True,DOWN,DOWN
'\'(100-145]\'','\'(415-inf)\'',DOWN,EQUAL,False,True,True,True,LEFT,LEFT
'\'(145-190]\'','\'(55-100]\'',DOWN,LEFT,False,True,True,True,LEFT,LEFT
'\'(145-190]\'','\'(55-100]\'',DOWN,RIGHT,False,True,True,True,LEFT,DOWN
'\'(235-280]\'','\'(145-190]\'',DOWN,RIGHT,True,False,True,True,RIGHT,RIGHT
'\'(415-inf)\'','\'(415-inf)\'',DOWN,RIGHT,True,True,False,True,DOWN,DOWN
'\'(280-325]\'','\'(235-280]\'',UP,RIGHT,True,False,True,False,RIGHT,RIGHT
'\'(-inf-55]\'','\'(235-280]\'',DOWN,LEFT,True,True,False,True,DOWN,DOWN
'\'(280-325]\'','\'(235-280]\'',UP,RIGHT,True,False,True,False,RIGHT,RIGHT
'\'(-inf-55]\'','\'(415-inf)\'',DOWN,LEFT,False,True,True,True,LEFT,LEFT
'\'(190-235]\'','\'(415-inf)\'',UP,RIGHT,False,True,True,True,LEFT,LEFT
'\'(235-280]\'','\'(145-190]\'',DOWN,RIGHT,True,True,False,True,DOWN,DOWN
'\'(415-inf)\'','\'(235-280]\'',DOWN,EQUAL,True,True,False,True,DOWN,DOWN
'\'(145-190]\'','\'(55-100]\'',DOWN,LEFT,False,True,True,True,LEFT,LEFT
'\'(-inf-55]\'','\'(415-inf)\'',DOWN,EQUAL,True,True,False,True,DOWN,DOWN
'\'(415-inf)\'','\'(280-325]\'',DOWN,RIGHT,True,False,True,True,RIGHT,RIGHT
'\'(-inf-55]\'','\'(235-280]\'',DOWN,LEFT,False,True,True,True,LEFT,LEFT
'\'(55-100]\'','\'(145-190]\'',EQUAL,EQUAL,True,True,True,False,UP,UP
'\'(370-415]\'','\'(55-100]\'',DOWN,RIGHT,True,False,True,True,RIGHT,RIGHT
'\'(415-inf)\'','\'(-inf-55]\'',DOWN,RIGHT,True,True,False,False,UP,RIGHT
'\'(280-325]\'','\'(235-280]\'',UP,RIGHT,True,False,True,False,RIGHT,RIGHT
'\'(415-inf)\'','\'(415-inf)\'',DOWN,EQUAL,True,False,True,True,RIGHT,DOWN
'\'(325-370]\'','\'(280-325]\'',DOWN,LEFT,True,True,False,True,DOWN,DOWN
'\'(55-100]\'','\'(370-415]\'',DOWN,RIGHT,True,True,True,False,UP,UP
'\'(370-415]\'','\'(-inf-55]\'',EQUAL,RIGHT,True,False,True,True,RIGHT,RIGHT
'\'(370-415]\'','\'(235-280]\'',UP,EQUAL,True,False,True,True,RIGHT,UP
'\'(145-190]\'','\'(415-inf)\'',DOWN,RIGHT,False,True,True,True,LEFT,LEFT
'\'(280-325]\'','\'(235-280]\'',UP,EQUAL,True,True,True,False,UP,UP
'\'(-inf-55]\'','\'(415-inf)\'',DOWN,LEFT,False,True,True,True,LEFT,LEFT
'\'(235-280]\'','\'(145-190]\'',EQUAL,RIGHT,True,True,False,True,DOWN,RIGHT
'\'(415-inf)\'','\'(415-inf)\'',DOWN,RIGHT,True,True,False,True,DOWN,DOWN
'\'(235-280]\'','\'(190-235]\'',UP,EQUAL,True,True,True,False,UP,UP
'\'(415-inf)\'','\'(325-370]\'',DOWN,RIGHT,True,False,True,True,RIGHT,RIGHT
'\'(325-370]\'','\'(190-235]\'',DOWN,RIGHT,True,True,False,True,DOWN,DOWN
'\'(55-100]\'','\'(-inf-55]\'',UP,LEFT,True,True,True,False,UP,UP
'\'(370-415]\'','\'(55-100]\'',DOWN,RIGHT,True,False,True,True,RIGHT,RIGHT
'\'(100-145]\'','\'(-inf-55]\'',DOWN,LEFT,False,True,True,True,LEFT,LEFT
'\'(415-inf)\'','\'(-inf-55]\'',UP,EQUAL,True,True,True,False,UP,UP
'\'(145-190]\'','\'(415-inf)\'',DOWN,RIGHT,False,True,True,True,LEFT,DOWN
'\'(100-145]\'','\'(-inf-55]\'',DOWN,LEFT,False,True,True,True,LEFT,LEFT
'\'(325-370]\'','\'(280-325]\'',UP,EQUAL,True,True,True,False,UP,UP
'\'(100-145]\'','\'(-inf-55]\'',DOWN,LEFT,False,True,True,True,LEFT,LEFT
'\'(55-100]\'','\'(145-190]\'',DOWN,EQUAL,False,True,True,True,LEFT,DOWN
'\'(235-280]\'','\'(145-190]\'',UP,RIGHT,False,True,True,True,LEFT,LEFT
'\'(55-100]\'','\'(-inf-55]\'',UP,LEFT,True,True,True,False,UP,UP
'\'(325-370]\'','\'(415-inf)\'',DOWN,RIGHT,False,True,True,True,LEFT,LEFT
'\'(100-145]\'','\'(55-100]\'',UP,RIGHT,True,False,True,True,RIGHT,RIGHT
'\'(370-415]\'','\'(-inf-55]\'',DOWN,RIGHT,True,False,True,True,RIGHT,RIGHT
