@relation 'snake_game-weka.filters.unsupervised.instance.Randomize-S42-weka.filters.unsupervised.instance.RemovePercentage-P20.0-weka.filters.unsupervised.attribute.Remove-R3-4,10,16-17-weka.filters.unsupervised.attribute.Remove-R1-4,8,13'

@attribute food_side_y {UP,DOWN,EQUAL}
@attribute food_side_x {RIGHT,LEFT,EQUAL}
@attribute manhattan_distance numeric
@attribute right_safe {True,False}
@attribute left_safe {True,False}
@attribute up_safe {True,False}
@attribute down_safe {True,False}
@attribute body_indirection {True,False}
@attribute previous_direction {UP,DOWN,LEFT,RIGHT}
@attribute direction {UP,DOWN,LEFT,RIGHT}

@data
UP,LEFT,240,True,True,True,False,False,UP,UP
UP,RIGHT,370,True,True,True,False,False,UP,UP
UP,EQUAL,50,True,True,True,False,False,UP,UP
UP,RIGHT,350,True,False,True,True,True,RIGHT,RIGHT
UP,RIGHT,490,True,True,True,False,False,UP,UP
UP,RIGHT,200,True,True,True,False,False,UP,UP
DOWN,RIGHT,80,True,True,False,True,False,DOWN,DOWN
UP,LEFT,540,False,True,True,True,False,LEFT,LEFT
UP,EQUAL,230,True,True,True,False,True,UP,UP
EQUAL,RIGHT,10,True,False,True,True,False,RIGHT,RIGHT
DOWN,RIGHT,270,True,True,True,False,False,UP,UP
DOWN,LEFT,270,True,True,True,False,False,UP,UP
UP,RIGHT,430,True,True,True,False,False,UP,UP
EQUAL,LEFT,10,True,True,False,True,False,DOWN,DOWN
UP,RIGHT,410,True,True,True,False,False,UP,UP
DOWN,RIGHT,250,True,True,True,False,False,UP,UP
DOWN,LEFT,450,False,True,True,True,False,LEFT,LEFT
DOWN,RIGHT,180,False,True,True,True,False,LEFT,DOWN
UP,RIGHT,150,True,False,True,True,False,RIGHT,RIGHT
UP,RIGHT,150,True,False,True,True,False,RIGHT,RIGHT
UP,EQUAL,20,True,True,True,False,False,UP,UP
UP,RIGHT,190,True,True,True,False,True,UP,RIGHT
UP,LEFT,30,True,False,True,True,False,RIGHT,RIGHT
UP,RIGHT,480,True,False,True,True,False,RIGHT,RIGHT
UP,RIGHT,50,False,True,True,True,False,LEFT,LEFT
DOWN,RIGHT,170,True,False,True,True,False,RIGHT,RIGHT
UP,RIGHT,120,True,False,True,True,False,RIGHT,RIGHT
UP,LEFT,480,True,True,False,True,False,DOWN,DOWN
UP,LEFT,40,True,True,True,False,False,UP,LEFT
DOWN,EQUAL,80,True,True,False,True,False,DOWN,DOWN
DOWN,LEFT,260,True,True,False,True,False,DOWN,DOWN
DOWN,LEFT,420,True,True,False,True,False,DOWN,DOWN
DOWN,LEFT,400,False,True,True,True,False,LEFT,LEFT
DOWN,RIGHT,280,True,False,False,True,False,RIGHT,RIGHT
UP,LEFT,20,True,True,False,True,False,DOWN,LEFT
DOWN,RIGHT,50,True,False,True,True,False,RIGHT,RIGHT
UP,LEFT,60,False,True,True,True,False,LEFT,LEFT
EQUAL,RIGHT,210,True,True,True,False,False,UP,UP
DOWN,EQUAL,140,True,True,False,True,False,DOWN,DOWN
DOWN,RIGHT,80,True,True,True,False,False,UP,RIGHT
UP,LEFT,40,True,True,False,True,False,DOWN,DOWN
UP,RIGHT,240,True,False,True,True,False,RIGHT,RIGHT
DOWN,RIGHT,80,True,True,False,True,False,DOWN,DOWN
UP,LEFT,190,False,True,True,True,False,LEFT,LEFT
UP,EQUAL,30,True,True,True,False,False,UP,UP
DOWN,RIGHT,250,True,False,True,True,False,RIGHT,RIGHT
UP,LEFT,210,True,True,True,False,False,UP,UP
EQUAL,LEFT,180,False,True,True,True,False,LEFT,LEFT
UP,LEFT,450,False,True,True,True,False,LEFT,LEFT
UP,RIGHT,270,True,True,False,True,False,DOWN,RIGHT
DOWN,LEFT,290,True,True,False,True,False,DOWN,DOWN
DOWN,EQUAL,150,True,True,False,True,False,DOWN,DOWN
UP,RIGHT,260,False,True,True,True,False,LEFT,LEFT
DOWN,RIGHT,90,True,True,False,True,False,DOWN,DOWN
EQUAL,RIGHT,160,True,True,False,True,False,DOWN,RIGHT
UP,LEFT,130,False,True,True,True,False,LEFT,LEFT
UP,RIGHT,300,True,True,True,False,False,UP,UP
UP,LEFT,190,True,True,False,True,False,DOWN,DOWN
EQUAL,EQUAL,100,True,True,False,True,False,DOWN,DOWN
DOWN,EQUAL,10,True,True,False,True,False,DOWN,DOWN
UP,LEFT,30,True,True,False,True,False,DOWN,DOWN
DOWN,RIGHT,240,True,False,True,True,False,RIGHT,RIGHT
UP,RIGHT,90,True,False,True,True,False,RIGHT,RIGHT
EQUAL,LEFT,140,False,True,True,True,False,LEFT,LEFT
DOWN,LEFT,170,False,True,True,True,False,LEFT,LEFT
EQUAL,LEFT,210,False,True,True,True,False,LEFT,LEFT
UP,RIGHT,200,True,False,True,True,False,RIGHT,RIGHT
DOWN,LEFT,150,True,True,True,False,False,UP,UP
UP,RIGHT,60,True,False,True,True,False,RIGHT,RIGHT
DOWN,LEFT,400,True,True,True,False,False,UP,LEFT
UP,RIGHT,160,True,True,True,False,False,UP,UP
UP,RIGHT,60,True,True,False,True,False,DOWN,DOWN
DOWN,RIGHT,260,True,False,True,True,False,RIGHT,DOWN
EQUAL,LEFT,20,False,True,True,True,False,LEFT,LEFT
EQUAL,LEFT,90,False,True,True,True,False,LEFT,LEFT
DOWN,RIGHT,490,True,False,True,True,False,RIGHT,RIGHT
DOWN,RIGHT,100,True,False,True,True,False,RIGHT,RIGHT
DOWN,EQUAL,20,True,False,False,True,True,DOWN,DOWN
EQUAL,LEFT,10,True,True,False,True,False,DOWN,DOWN
DOWN,LEFT,220,False,True,True,True,False,LEFT,LEFT
UP,EQUAL,10,False,True,True,True,False,LEFT,LEFT
UP,RIGHT,180,True,False,True,True,False,RIGHT,RIGHT
EQUAL,RIGHT,10,True,False,True,True,False,RIGHT,RIGHT
UP,RIGHT,320,True,False,True,True,False,RIGHT,RIGHT
DOWN,LEFT,290,False,True,True,True,False,LEFT,LEFT
DOWN,LEFT,300,False,True,True,True,False,LEFT,LEFT
EQUAL,LEFT,40,False,True,True,True,False,LEFT,LEFT
DOWN,RIGHT,70,True,False,True,True,False,RIGHT,RIGHT
DOWN,LEFT,70,False,True,True,True,False,LEFT,DOWN
EQUAL,EQUAL,130,True,False,False,True,True,DOWN,DOWN
DOWN,RIGHT,160,True,True,False,True,False,DOWN,RIGHT
UP,RIGHT,160,True,False,True,True,False,RIGHT,RIGHT
UP,RIGHT,130,True,True,True,False,False,UP,UP
EQUAL,LEFT,170,True,True,True,False,False,UP,LEFT
EQUAL,LEFT,220,False,True,True,True,False,LEFT,LEFT
UP,RIGHT,120,True,False,True,True,False,RIGHT,RIGHT
DOWN,EQUAL,20,True,True,False,True,False,DOWN,DOWN
UP,RIGHT,460,True,True,True,False,False,UP,UP
EQUAL,RIGHT,80,True,False,True,True,False,RIGHT,RIGHT
DOWN,LEFT,530,True,True,True,False,False,UP,UP
EQUAL,RIGHT,50,True,True,False,False,False,DOWN,RIGHT
UP,EQUAL,50,True,True,True,False,False,UP,UP
UP,LEFT,430,True,False,True,True,False,RIGHT,RIGHT
EQUAL,EQUAL,320,True,False,True,True,False,RIGHT,RIGHT
EQUAL,LEFT,210,False,True,True,True,False,LEFT,LEFT
UP,RIGHT,60,True,True,False,True,False,DOWN,DOWN
DOWN,LEFT,90,True,True,False,True,False,DOWN,DOWN
EQUAL,LEFT,80,False,True,True,True,False,LEFT,LEFT
DOWN,RIGHT,150,True,False,True,True,False,RIGHT,RIGHT
DOWN,LEFT,60,False,True,True,True,False,LEFT,LEFT
DOWN,LEFT,30,False,True,False,True,False,LEFT,LEFT
UP,RIGHT,230,True,True,True,False,False,UP,UP
UP,LEFT,30,True,True,True,False,False,UP,UP
UP,RIGHT,340,True,False,True,True,False,RIGHT,RIGHT
DOWN,EQUAL,140,False,True,True,True,False,LEFT,LEFT
DOWN,RIGHT,130,True,False,True,True,True,RIGHT,RIGHT
DOWN,LEFT,270,False,True,True,True,False,LEFT,LEFT
DOWN,LEFT,250,False,True,True,True,False,LEFT,LEFT
DOWN,LEFT,100,True,True,False,True,False,DOWN,LEFT
DOWN,RIGHT,80,True,False,True,True,False,RIGHT,RIGHT
UP,RIGHT,500,True,False,True,True,False,RIGHT,RIGHT
DOWN,LEFT,130,False,True,True,True,False,LEFT,LEFT
DOWN,RIGHT,90,True,True,False,True,False,DOWN,DOWN
UP,LEFT,20,True,False,True,True,False,RIGHT,RIGHT
UP,RIGHT,320,True,True,True,False,False,UP,UP
DOWN,LEFT,370,False,True,True,True,False,LEFT,LEFT
DOWN,EQUAL,160,True,True,False,True,False,DOWN,DOWN
DOWN,RIGHT,260,True,False,True,True,False,RIGHT,RIGHT
DOWN,LEFT,150,False,True,True,True,False,LEFT,LEFT
EQUAL,LEFT,170,False,True,True,True,False,LEFT,LEFT
DOWN,EQUAL,360,True,True,False,True,False,DOWN,DOWN
DOWN,EQUAL,190,False,True,True,True,False,LEFT,DOWN
EQUAL,EQUAL,270,True,True,True,False,False,UP,UP
UP,RIGHT,510,True,True,True,False,False,UP,RIGHT
DOWN,EQUAL,160,True,True,False,True,False,DOWN,DOWN
DOWN,LEFT,230,True,True,False,True,False,DOWN,DOWN
UP,LEFT,330,False,True,True,True,False,LEFT,LEFT
DOWN,LEFT,150,False,True,True,True,False,LEFT,LEFT
UP,EQUAL,100,True,True,True,False,True,UP,UP
UP,LEFT,30,False,True,True,True,False,LEFT,LEFT
DOWN,RIGHT,130,True,True,False,True,False,DOWN,DOWN
DOWN,EQUAL,20,True,True,False,True,False,DOWN,DOWN
UP,LEFT,130,False,True,True,True,False,LEFT,LEFT
UP,LEFT,100,False,True,True,True,False,LEFT,UP
DOWN,LEFT,140,False,True,True,True,False,LEFT,LEFT
DOWN,LEFT,30,False,True,True,True,False,LEFT,LEFT
DOWN,LEFT,270,True,True,False,True,False,DOWN,DOWN
DOWN,EQUAL,70,True,True,False,True,False,DOWN,DOWN
UP,LEFT,570,False,True,True,True,False,LEFT,LEFT
DOWN,RIGHT,70,True,True,False,True,False,DOWN,DOWN
UP,EQUAL,40,True,True,True,False,False,UP,UP
UP,EQUAL,70,True,True,True,False,False,UP,UP
UP,LEFT,450,True,False,True,True,False,RIGHT,RIGHT
UP,RIGHT,110,True,False,True,True,False,RIGHT,RIGHT
EQUAL,LEFT,50,False,True,True,True,False,LEFT,LEFT
DOWN,RIGHT,80,True,False,False,True,False,RIGHT,RIGHT
DOWN,EQUAL,120,True,True,False,True,True,DOWN,DOWN
DOWN,LEFT,310,True,True,False,True,False,DOWN,DOWN
DOWN,RIGHT,390,True,False,True,True,False,RIGHT,RIGHT
UP,RIGHT,560,True,False,True,False,False,UP,UP
UP,RIGHT,230,True,False,True,True,False,RIGHT,RIGHT
DOWN,RIGHT,200,True,True,True,False,False,UP,UP
UP,LEFT,70,True,True,False,True,False,DOWN,DOWN
DOWN,RIGHT,50,False,True,True,True,False,LEFT,LEFT
DOWN,RIGHT,210,True,False,True,True,False,RIGHT,RIGHT
UP,LEFT,400,True,True,True,False,False,UP,UP
DOWN,LEFT,320,True,True,False,True,False,DOWN,DOWN
UP,RIGHT,400,True,False,True,False,False,RIGHT,RIGHT
DOWN,EQUAL,90,True,True,False,True,False,DOWN,DOWN
DOWN,LEFT,60,True,False,True,True,False,RIGHT,DOWN
DOWN,RIGHT,450,True,True,False,True,False,DOWN,DOWN
UP,EQUAL,50,True,True,True,False,False,UP,UP
DOWN,LEFT,140,True,True,False,True,False,DOWN,DOWN
DOWN,EQUAL,20,True,True,False,True,False,DOWN,DOWN
DOWN,LEFT,290,False,True,True,True,False,LEFT,LEFT
UP,RIGHT,460,True,False,True,True,False,RIGHT,RIGHT
DOWN,LEFT,130,True,True,False,True,False,DOWN,DOWN
DOWN,RIGHT,110,True,False,True,True,False,RIGHT,RIGHT
DOWN,RIGHT,290,True,False,True,True,False,RIGHT,RIGHT
UP,LEFT,500,False,True,True,True,False,LEFT,LEFT
DOWN,LEFT,110,False,True,True,True,False,LEFT,LEFT
UP,LEFT,330,True,True,True,False,False,UP,UP
DOWN,LEFT,200,True,True,True,False,False,UP,UP
DOWN,LEFT,150,True,True,False,True,False,DOWN,DOWN
DOWN,RIGHT,70,True,False,True,True,False,RIGHT,RIGHT
DOWN,RIGHT,210,False,True,True,True,False,LEFT,DOWN
UP,EQUAL,80,True,True,True,False,False,UP,UP
DOWN,LEFT,140,False,True,True,True,False,LEFT,LEFT
EQUAL,EQUAL,550,True,True,False,True,False,DOWN,DOWN
UP,LEFT,210,True,True,True,False,False,UP,UP
DOWN,LEFT,360,True,True,False,True,False,DOWN,DOWN
DOWN,RIGHT,110,True,False,True,True,False,RIGHT,RIGHT
DOWN,LEFT,70,False,True,True,True,False,LEFT,LEFT
EQUAL,LEFT,230,False,True,True,True,False,LEFT,LEFT
DOWN,EQUAL,100,True,True,False,True,False,DOWN,DOWN
UP,EQUAL,210,True,True,True,False,True,UP,UP
UP,RIGHT,350,True,False,True,True,False,RIGHT,RIGHT
DOWN,LEFT,240,True,True,False,True,False,DOWN,DOWN
UP,RIGHT,100,True,False,True,True,False,RIGHT,RIGHT
EQUAL,LEFT,90,False,True,True,True,False,LEFT,LEFT
DOWN,LEFT,190,False,True,True,True,False,LEFT,LEFT
UP,EQUAL,140,True,True,True,False,False,UP,UP
DOWN,LEFT,290,False,True,True,True,False,LEFT,LEFT
DOWN,RIGHT,220,True,True,True,False,False,UP,RIGHT
DOWN,RIGHT,350,True,False,True,True,False,RIGHT,RIGHT
DOWN,LEFT,220,True,True,False,True,False,DOWN,DOWN
UP,RIGHT,300,True,False,True,True,False,RIGHT,RIGHT
UP,RIGHT,200,True,False,True,True,False,RIGHT,RIGHT
DOWN,RIGHT,90,True,False,True,True,False,RIGHT,RIGHT
UP,RIGHT,20,False,True,True,True,False,LEFT,LEFT
UP,EQUAL,30,True,True,True,False,False,UP,UP
DOWN,RIGHT,160,True,False,False,True,False,RIGHT,RIGHT
UP,RIGHT,50,True,True,False,True,False,DOWN,DOWN
UP,LEFT,420,True,True,True,False,False,UP,UP
EQUAL,EQUAL,280,True,True,False,True,False,DOWN,DOWN
UP,RIGHT,40,False,True,True,True,False,LEFT,LEFT
DOWN,RIGHT,500,True,True,False,True,False,DOWN,DOWN
EQUAL,LEFT,120,False,True,True,True,False,LEFT,LEFT
DOWN,RIGHT,470,True,False,True,True,False,RIGHT,RIGHT
DOWN,EQUAL,120,True,True,False,True,True,DOWN,DOWN
UP,LEFT,400,True,True,True,False,False,UP,UP
DOWN,LEFT,90,False,True,True,True,False,LEFT,LEFT
UP,LEFT,280,True,True,True,False,False,UP,UP
DOWN,EQUAL,140,True,True,False,True,False,DOWN,DOWN
UP,EQUAL,220,True,True,True,False,False,UP,UP
DOWN,RIGHT,210,True,False,True,True,False,RIGHT,RIGHT
DOWN,EQUAL,30,True,True,False,True,False,DOWN,DOWN
DOWN,EQUAL,50,True,False,False,True,True,DOWN,DOWN
DOWN,LEFT,300,True,True,False,True,False,DOWN,DOWN
DOWN,RIGHT,270,True,False,True,True,False,RIGHT,RIGHT
UP,EQUAL,140,True,True,True,False,False,UP,UP
DOWN,RIGHT,90,True,True,False,True,False,DOWN,DOWN
DOWN,RIGHT,180,True,True,True,False,False,UP,UP
UP,LEFT,170,True,True,False,True,False,DOWN,DOWN
EQUAL,LEFT,130,False,True,True,True,False,LEFT,LEFT
UP,LEFT,20,False,True,True,True,False,LEFT,LEFT
DOWN,RIGHT,230,True,False,True,True,False,RIGHT,RIGHT
DOWN,RIGHT,140,True,False,True,True,True,RIGHT,RIGHT
UP,RIGHT,400,True,True,True,False,False,UP,UP
UP,EQUAL,60,True,True,True,False,False,UP,UP
UP,LEFT,50,True,False,True,True,False,RIGHT,RIGHT
DOWN,RIGHT,390,True,False,True,True,False,RIGHT,RIGHT
DOWN,LEFT,280,False,True,True,True,False,LEFT,LEFT
DOWN,EQUAL,30,True,True,False,True,False,DOWN,DOWN
UP,RIGHT,390,True,True,True,False,False,UP,UP
UP,LEFT,420,True,False,True,True,False,RIGHT,RIGHT
UP,RIGHT,380,False,True,True,True,False,LEFT,LEFT
DOWN,LEFT,270,True,True,False,True,False,DOWN,DOWN
DOWN,EQUAL,130,False,True,True,True,False,LEFT,LEFT
DOWN,EQUAL,20,False,True,True,True,False,LEFT,DOWN
DOWN,RIGHT,150,True,False,True,True,False,RIGHT,RIGHT
DOWN,RIGHT,470,True,True,False,True,False,DOWN,DOWN
DOWN,LEFT,60,False,True,True,True,False,LEFT,DOWN
UP,EQUAL,110,True,True,True,False,False,UP,UP
DOWN,LEFT,540,True,True,False,True,False,DOWN,DOWN
EQUAL,LEFT,120,False,True,True,True,False,LEFT,LEFT
UP,LEFT,320,False,True,True,True,False,LEFT,UP
DOWN,LEFT,210,True,True,False,True,False,DOWN,DOWN
UP,LEFT,250,True,True,True,False,False,UP,UP
EQUAL,LEFT,10,False,True,True,True,False,LEFT,LEFT
EQUAL,LEFT,120,True,True,True,False,True,UP,LEFT
DOWN,RIGHT,630,False,True,True,True,False,LEFT,LEFT
DOWN,LEFT,440,True,False,True,True,False,RIGHT,RIGHT
DOWN,RIGHT,120,True,False,True,True,False,RIGHT,RIGHT
DOWN,LEFT,90,False,True,True,True,False,LEFT,LEFT
DOWN,RIGHT,80,False,True,True,True,False,LEFT,DOWN
UP,EQUAL,40,False,True,True,False,True,UP,UP
DOWN,LEFT,80,False,True,True,True,False,LEFT,LEFT
DOWN,LEFT,430,False,True,True,True,False,LEFT,LEFT
DOWN,RIGHT,360,True,False,True,True,False,RIGHT,RIGHT
DOWN,EQUAL,390,False,True,True,True,False,LEFT,DOWN
EQUAL,LEFT,70,False,True,True,True,False,LEFT,LEFT
DOWN,LEFT,310,False,True,True,True,False,LEFT,LEFT
DOWN,RIGHT,190,True,False,True,True,False,RIGHT,RIGHT
DOWN,LEFT,290,True,True,False,True,False,DOWN,DOWN
UP,LEFT,270,False,True,True,True,False,LEFT,LEFT
UP,LEFT,90,False,True,True,True,False,LEFT,LEFT
DOWN,RIGHT,240,True,False,True,True,False,RIGHT,RIGHT
UP,RIGHT,240,True,True,True,False,False,UP,UP
UP,LEFT,240,True,True,False,True,False,DOWN,DOWN
DOWN,RIGHT,60,True,True,False,True,False,DOWN,DOWN
DOWN,LEFT,280,True,True,False,True,False,DOWN,DOWN
UP,RIGHT,440,True,False,True,True,False,RIGHT,RIGHT
DOWN,LEFT,330,True,True,False,True,False,DOWN,DOWN
UP,EQUAL,10,True,False,True,True,False,RIGHT,RIGHT
DOWN,RIGHT,620,True,False,True,True,False,RIGHT,RIGHT
DOWN,LEFT,130,True,True,False,True,False,DOWN,DOWN
DOWN,RIGHT,210,True,True,False,True,False,DOWN,DOWN
DOWN,EQUAL,120,True,True,False,True,False,DOWN,DOWN
DOWN,RIGHT,180,True,False,True,True,False,RIGHT,RIGHT
EQUAL,RIGHT,30,True,True,True,False,False,UP,RIGHT
EQUAL,LEFT,20,True,True,False,True,False,DOWN,DOWN
DOWN,LEFT,370,True,True,False,True,False,DOWN,DOWN
DOWN,RIGHT,60,True,False,True,True,False,RIGHT,RIGHT
DOWN,RIGHT,240,True,True,True,False,False,UP,UP
DOWN,LEFT,190,True,True,True,False,False,UP,UP
UP,LEFT,280,True,True,True,False,False,UP,UP
DOWN,RIGHT,50,True,False,True,True,False,RIGHT,RIGHT
DOWN,RIGHT,270,True,False,False,True,False,RIGHT,RIGHT
EQUAL,EQUAL,380,True,True,False,True,False,DOWN,DOWN
DOWN,LEFT,280,True,True,True,False,False,UP,UP
DOWN,LEFT,320,False,True,True,True,False,LEFT,LEFT
DOWN,RIGHT,170,True,False,True,True,False,RIGHT,RIGHT
UP,RIGHT,250,True,False,True,True,False,RIGHT,RIGHT
DOWN,LEFT,160,True,True,False,True,False,DOWN,DOWN
DOWN,RIGHT,400,True,False,True,True,True,RIGHT,RIGHT
UP,LEFT,440,True,False,True,True,False,RIGHT,RIGHT
DOWN,LEFT,340,True,True,False,True,False,DOWN,DOWN
DOWN,RIGHT,60,True,True,False,True,False,DOWN,RIGHT
UP,EQUAL,40,True,True,True,False,False,UP,UP
UP,LEFT,170,False,True,True,True,False,LEFT,LEFT
UP,RIGHT,230,True,False,True,True,False,RIGHT,RIGHT
UP,LEFT,220,True,True,True,False,False,UP,UP
DOWN,LEFT,450,True,True,True,False,False,UP,LEFT
DOWN,LEFT,200,False,True,True,True,False,LEFT,LEFT
UP,LEFT,170,True,True,True,False,False,UP,UP
UP,LEFT,80,False,True,True,True,False,LEFT,LEFT
DOWN,RIGHT,20,True,True,False,True,False,DOWN,DOWN
EQUAL,RIGHT,10,True,True,False,True,False,DOWN,RIGHT
EQUAL,RIGHT,30,True,False,True,True,False,RIGHT,RIGHT
DOWN,LEFT,200,False,True,True,True,False,LEFT,LEFT
EQUAL,LEFT,20,False,True,True,True,False,LEFT,LEFT
UP,RIGHT,590,True,False,True,False,False,UP,UP
UP,EQUAL,230,True,True,True,False,False,UP,UP
DOWN,RIGHT,480,True,False,True,True,False,RIGHT,RIGHT
UP,RIGHT,240,True,True,True,False,False,UP,UP
DOWN,LEFT,330,False,True,True,True,False,LEFT,DOWN
DOWN,RIGHT,20,True,True,False,True,False,DOWN,DOWN
DOWN,RIGHT,480,True,True,False,True,False,DOWN,DOWN
UP,LEFT,260,True,True,True,False,False,UP,UP
DOWN,EQUAL,50,True,True,False,True,False,DOWN,DOWN
UP,RIGHT,180,True,False,True,True,False,RIGHT,RIGHT
DOWN,RIGHT,140,True,True,False,True,False,DOWN,DOWN
UP,RIGHT,140,True,False,True,True,False,RIGHT,RIGHT
UP,LEFT,270,True,True,True,False,False,UP,UP
DOWN,LEFT,140,True,True,False,True,False,DOWN,DOWN
DOWN,EQUAL,60,True,False,False,True,True,DOWN,DOWN
DOWN,RIGHT,30,True,True,False,True,False,DOWN,DOWN
DOWN,RIGHT,110,True,True,False,True,False,DOWN,DOWN
UP,LEFT,300,True,False,True,True,False,RIGHT,UP
UP,RIGHT,80,True,True,True,False,False,UP,UP
UP,RIGHT,350,True,True,True,False,False,UP,UP
UP,LEFT,120,False,True,True,True,False,LEFT,LEFT
DOWN,LEFT,430,False,True,True,True,False,LEFT,LEFT
EQUAL,LEFT,160,False,True,True,True,False,LEFT,LEFT
DOWN,RIGHT,120,True,False,True,True,False,RIGHT,RIGHT
UP,EQUAL,10,True,True,True,False,False,UP,UP
EQUAL,RIGHT,120,True,False,True,True,False,RIGHT,RIGHT
DOWN,LEFT,240,False,True,True,True,False,LEFT,LEFT
UP,LEFT,200,True,True,False,True,False,DOWN,DOWN
DOWN,LEFT,60,False,True,True,True,False,LEFT,LEFT
EQUAL,LEFT,160,False,True,True,True,False,LEFT,LEFT
DOWN,RIGHT,170,True,False,True,True,False,RIGHT,RIGHT
UP,RIGHT,70,True,False,True,True,False,RIGHT,UP
UP,LEFT,280,True,True,True,False,False,UP,UP
DOWN,LEFT,410,True,True,False,True,False,DOWN,DOWN
UP,LEFT,260,True,True,True,False,False,UP,UP
EQUAL,EQUAL,70,True,False,True,True,False,RIGHT,RIGHT
DOWN,LEFT,190,False,True,True,True,False,LEFT,LEFT
DOWN,LEFT,520,True,True,False,True,False,DOWN,DOWN
DOWN,EQUAL,300,True,True,False,True,False,DOWN,DOWN
UP,LEFT,360,False,True,True,True,False,LEFT,LEFT
UP,RIGHT,100,True,True,True,False,False,UP,UP
UP,LEFT,70,False,True,True,False,False,UP,UP
DOWN,EQUAL,20,True,True,False,True,False,DOWN,DOWN
DOWN,EQUAL,30,True,True,False,True,False,DOWN,DOWN
DOWN,EQUAL,60,True,True,False,True,False,DOWN,DOWN
DOWN,RIGHT,90,True,False,False,True,False,RIGHT,RIGHT
UP,LEFT,560,False,True,True,True,False,LEFT,LEFT
UP,RIGHT,230,True,False,True,False,False,RIGHT,RIGHT
UP,EQUAL,90,True,True,True,False,False,UP,UP
EQUAL,LEFT,130,False,True,True,True,False,LEFT,LEFT
DOWN,RIGHT,300,True,False,True,True,False,RIGHT,RIGHT
UP,RIGHT,170,True,False,True,True,False,RIGHT,RIGHT
DOWN,RIGHT,100,True,False,False,True,False,RIGHT,RIGHT
UP,RIGHT,360,True,False,True,True,True,RIGHT,RIGHT
DOWN,RIGHT,180,True,True,False,True,False,DOWN,DOWN
DOWN,LEFT,340,True,True,False,True,False,DOWN,DOWN
UP,LEFT,160,False,True,True,True,False,LEFT,LEFT
UP,RIGHT,30,True,True,False,True,False,DOWN,DOWN
DOWN,RIGHT,250,True,True,True,False,False,UP,UP
DOWN,RIGHT,160,True,False,True,True,False,RIGHT,RIGHT
UP,RIGHT,190,True,True,True,False,False,UP,UP
UP,LEFT,460,True,True,True,False,False,UP,UP
DOWN,LEFT,210,False,True,True,True,False,LEFT,LEFT
EQUAL,EQUAL,100,True,False,True,True,False,RIGHT,RIGHT
DOWN,LEFT,400,False,True,True,True,False,LEFT,LEFT
DOWN,LEFT,100,True,True,False,True,False,DOWN,DOWN
UP,LEFT,560,True,True,False,True,False,DOWN,DOWN
UP,RIGHT,220,True,False,True,True,False,RIGHT,UP
EQUAL,LEFT,150,True,True,False,True,False,DOWN,LEFT
UP,LEFT,250,False,True,True,True,False,LEFT,LEFT
EQUAL,LEFT,100,False,True,True,True,False,LEFT,LEFT
DOWN,LEFT,490,True,True,False,True,False,DOWN,DOWN
UP,RIGHT,110,True,True,True,False,False,UP,UP
UP,EQUAL,60,True,True,True,False,False,UP,UP
UP,LEFT,230,False,True,True,True,False,LEFT,LEFT
DOWN,LEFT,450,False,True,True,True,False,LEFT,LEFT
DOWN,RIGHT,100,True,True,False,True,False,DOWN,DOWN
UP,EQUAL,10,False,True,True,True,False,LEFT,LEFT
UP,EQUAL,60,True,True,True,False,False,UP,UP
DOWN,RIGHT,70,True,True,False,True,False,DOWN,DOWN
EQUAL,EQUAL,580,True,True,True,False,False,UP,UP
UP,RIGHT,240,True,False,True,True,False,RIGHT,UP
DOWN,LEFT,130,True,True,False,True,False,DOWN,DOWN
UP,LEFT,80,False,True,True,True,False,LEFT,LEFT
DOWN,EQUAL,40,True,True,False,True,False,DOWN,DOWN
DOWN,RIGHT,200,True,False,True,True,False,RIGHT,DOWN
DOWN,RIGHT,210,True,False,True,True,False,RIGHT,RIGHT
DOWN,LEFT,170,True,True,False,True,False,DOWN,DOWN
EQUAL,EQUAL,490,True,True,True,False,False,UP,UP
UP,RIGHT,50,True,True,True,False,False,UP,UP
DOWN,LEFT,250,False,True,True,True,False,LEFT,LEFT
UP,LEFT,430,True,True,False,True,False,DOWN,DOWN
UP,LEFT,340,True,True,False,True,True,DOWN,DOWN
DOWN,RIGHT,50,True,False,True,True,False,RIGHT,RIGHT
DOWN,LEFT,370,False,True,True,True,False,LEFT,LEFT
DOWN,RIGHT,200,True,False,True,True,False,RIGHT,RIGHT
DOWN,LEFT,230,True,True,False,True,False,DOWN,DOWN
DOWN,LEFT,50,True,True,False,True,False,DOWN,DOWN
UP,RIGHT,250,True,False,True,True,False,RIGHT,RIGHT
UP,RIGHT,270,True,False,True,True,False,RIGHT,RIGHT
UP,RIGHT,100,False,True,True,True,False,LEFT,UP
EQUAL,LEFT,160,False,True,True,True,False,LEFT,LEFT
UP,RIGHT,250,True,False,True,True,False,RIGHT,RIGHT
UP,EQUAL,70,True,True,True,False,False,UP,UP
EQUAL,LEFT,10,False,True,True,True,False,LEFT,LEFT
EQUAL,RIGHT,50,True,False,True,True,False,RIGHT,RIGHT
EQUAL,LEFT,270,False,True,True,True,False,LEFT,LEFT
DOWN,LEFT,250,True,True,False,True,False,DOWN,DOWN
EQUAL,RIGHT,40,True,False,False,True,False,RIGHT,RIGHT
DOWN,LEFT,30,True,True,False,True,False,DOWN,DOWN
DOWN,RIGHT,130,True,True,True,False,False,UP,RIGHT
UP,RIGHT,300,True,False,True,False,False,RIGHT,RIGHT
UP,EQUAL,10,False,True,True,True,False,LEFT,LEFT
DOWN,RIGHT,290,True,False,True,True,False,RIGHT,RIGHT
UP,RIGHT,430,True,False,True,True,False,RIGHT,RIGHT
DOWN,EQUAL,60,True,True,False,True,False,DOWN,DOWN
UP,LEFT,250,True,True,True,False,False,UP,UP
EQUAL,EQUAL,70,True,True,False,True,False,DOWN,DOWN
UP,RIGHT,200,True,True,True,False,False,UP,UP
DOWN,LEFT,120,False,True,True,True,False,LEFT,LEFT
DOWN,LEFT,610,True,True,False,True,False,DOWN,DOWN
UP,RIGHT,580,True,False,True,False,False,UP,UP
DOWN,LEFT,330,True,True,False,True,False,DOWN,DOWN
DOWN,LEFT,530,True,True,False,True,False,DOWN,DOWN
DOWN,LEFT,170,False,True,True,True,False,LEFT,LEFT
DOWN,LEFT,80,False,True,True,True,False,LEFT,LEFT
DOWN,RIGHT,130,True,True,False,True,False,DOWN,DOWN
UP,LEFT,490,False,True,True,True,False,LEFT,LEFT
UP,LEFT,80,True,True,True,False,False,UP,UP
UP,EQUAL,20,True,True,True,False,False,UP,UP
DOWN,RIGHT,110,True,True,False,True,False,DOWN,DOWN
DOWN,EQUAL,10,False,True,False,True,False,LEFT,LEFT
UP,EQUAL,20,True,True,True,False,False,UP,UP
EQUAL,EQUAL,310,True,False,True,True,False,RIGHT,RIGHT
DOWN,RIGHT,270,True,True,True,False,False,UP,UP
DOWN,LEFT,220,False,True,True,True,False,LEFT,LEFT
DOWN,RIGHT,70,True,True,False,True,False,DOWN,DOWN
DOWN,EQUAL,80,True,True,False,True,False,DOWN,DOWN
UP,LEFT,560,True,True,True,False,False,UP,UP
UP,EQUAL,130,True,False,True,True,False,RIGHT,UP
DOWN,RIGHT,510,False,True,True,True,False,LEFT,DOWN
DOWN,LEFT,350,False,True,True,True,False,LEFT,LEFT
UP,RIGHT,250,True,True,False,True,False,DOWN,DOWN
DOWN,LEFT,340,False,True,True,True,False,LEFT,LEFT
UP,LEFT,110,False,True,True,True,False,LEFT,LEFT
UP,EQUAL,40,True,True,True,False,False,UP,UP
UP,EQUAL,20,True,True,True,False,False,UP,UP
DOWN,RIGHT,140,True,False,True,True,False,RIGHT,RIGHT
DOWN,EQUAL,50,True,False,True,True,False,RIGHT,RIGHT
UP,RIGHT,230,True,False,True,True,False,RIGHT,RIGHT
EQUAL,EQUAL,370,True,True,True,False,False,UP,UP
DOWN,LEFT,140,True,False,True,True,False,RIGHT,DOWN
UP,EQUAL,250,True,False,True,True,False,RIGHT,UP
UP,RIGHT,300,True,True,True,False,False,UP,UP
UP,RIGHT,250,True,False,True,True,False,RIGHT,RIGHT
DOWN,EQUAL,30,True,False,False,True,True,DOWN,DOWN
EQUAL,RIGHT,10,True,False,True,False,True,RIGHT,RIGHT
DOWN,RIGHT,320,True,False,True,True,False,RIGHT,RIGHT
DOWN,LEFT,180,True,True,False,True,False,DOWN,DOWN
EQUAL,LEFT,130,False,True,True,True,False,LEFT,LEFT
DOWN,LEFT,170,True,True,False,True,False,DOWN,DOWN
DOWN,EQUAL,30,True,True,False,True,False,DOWN,DOWN
UP,EQUAL,60,True,True,True,False,False,UP,UP
UP,EQUAL,90,True,True,True,False,False,UP,UP
EQUAL,LEFT,190,False,True,True,True,False,LEFT,LEFT
DOWN,RIGHT,210,False,True,True,True,False,LEFT,LEFT
DOWN,LEFT,390,False,True,True,True,False,LEFT,LEFT
UP,LEFT,50,True,False,True,True,False,RIGHT,RIGHT
DOWN,RIGHT,190,True,True,True,False,False,UP,UP
DOWN,RIGHT,30,True,False,True,True,False,RIGHT,RIGHT
UP,RIGHT,110,False,True,True,True,False,LEFT,LEFT
DOWN,LEFT,150,False,True,True,True,False,LEFT,LEFT
DOWN,LEFT,220,False,True,True,True,False,LEFT,LEFT
EQUAL,LEFT,60,False,True,True,True,False,LEFT,LEFT
UP,LEFT,430,False,True,True,True,False,LEFT,LEFT
DOWN,LEFT,160,False,True,True,True,False,LEFT,LEFT
UP,RIGHT,70,False,True,True,True,False,LEFT,LEFT
DOWN,LEFT,300,False,True,True,True,False,LEFT,LEFT
DOWN,RIGHT,230,True,False,True,True,False,RIGHT,RIGHT
DOWN,RIGHT,180,True,True,False,True,False,DOWN,DOWN
UP,LEFT,220,False,True,True,True,False,LEFT,LEFT
EQUAL,LEFT,40,False,True,True,True,False,LEFT,LEFT
DOWN,RIGHT,170,True,True,False,True,False,DOWN,DOWN
UP,RIGHT,390,False,True,True,True,False,LEFT,UP
UP,RIGHT,380,True,True,True,False,False,UP,UP
UP,RIGHT,420,True,False,True,True,False,RIGHT,RIGHT
UP,EQUAL,30,True,True,True,False,False,UP,UP
EQUAL,RIGHT,60,True,True,True,False,False,UP,RIGHT
UP,EQUAL,20,True,True,True,False,False,UP,UP
UP,EQUAL,160,True,True,True,False,True,UP,UP
UP,EQUAL,50,True,False,True,False,False,UP,UP
UP,LEFT,430,True,True,True,False,False,UP,UP
DOWN,LEFT,540,True,True,True,False,False,UP,LEFT
UP,LEFT,180,False,True,True,True,False,LEFT,LEFT
UP,EQUAL,80,True,True,True,False,False,UP,UP
UP,LEFT,190,False,True,True,True,False,LEFT,LEFT
UP,RIGHT,380,True,True,True,False,False,UP,UP
UP,EQUAL,20,True,True,True,False,False,UP,UP
UP,LEFT,290,True,True,True,False,False,UP,UP
EQUAL,RIGHT,40,True,False,True,False,False,RIGHT,RIGHT
UP,EQUAL,90,True,True,True,False,False,UP,UP
DOWN,RIGHT,230,True,False,True,True,False,RIGHT,RIGHT
UP,RIGHT,320,True,True,True,False,False,UP,UP
UP,RIGHT,210,True,False,True,True,False,RIGHT,RIGHT
UP,RIGHT,330,True,True,True,False,False,UP,UP
DOWN,RIGHT,80,True,False,True,True,False,RIGHT,RIGHT
UP,RIGHT,220,True,False,True,True,False,RIGHT,RIGHT
UP,RIGHT,160,False,True,True,True,False,LEFT,LEFT
DOWN,LEFT,440,False,True,True,True,False,LEFT,LEFT
UP,LEFT,60,True,True,True,False,False,UP,UP
DOWN,RIGHT,240,True,True,True,False,False,UP,UP
DOWN,LEFT,380,True,True,False,True,False,DOWN,DOWN
DOWN,LEFT,430,False,True,True,True,False,LEFT,LEFT
EQUAL,LEFT,100,False,True,True,True,False,LEFT,LEFT
DOWN,RIGHT,270,True,False,True,True,False,RIGHT,RIGHT
DOWN,LEFT,210,True,True,False,True,False,DOWN,DOWN
DOWN,RIGHT,300,True,False,False,True,False,RIGHT,RIGHT
DOWN,LEFT,170,False,True,True,True,False,LEFT,LEFT
DOWN,LEFT,110,True,True,False,True,False,DOWN,DOWN
DOWN,LEFT,190,False,True,True,True,False,LEFT,LEFT
DOWN,EQUAL,70,True,True,False,True,False,DOWN,DOWN
DOWN,EQUAL,180,True,True,False,True,False,DOWN,DOWN
DOWN,LEFT,90,True,True,False,True,False,DOWN,DOWN
UP,LEFT,200,False,True,True,True,False,LEFT,LEFT
UP,RIGHT,260,True,True,True,False,False,UP,UP
DOWN,RIGHT,170,True,True,False,True,False,DOWN,DOWN
DOWN,LEFT,430,False,True,True,True,False,LEFT,LEFT
UP,LEFT,90,False,True,True,False,False,UP,UP
DOWN,LEFT,280,False,True,True,True,False,LEFT,LEFT
UP,LEFT,150,True,True,True,False,False,UP,LEFT
DOWN,RIGHT,160,True,False,True,True,True,RIGHT,RIGHT
DOWN,LEFT,370,False,True,True,True,False,LEFT,LEFT
UP,LEFT,360,True,True,True,False,False,UP,UP
DOWN,RIGHT,160,True,False,True,True,False,RIGHT,RIGHT
UP,EQUAL,80,True,True,True,False,False,UP,UP
EQUAL,RIGHT,50,True,False,True,True,False,RIGHT,RIGHT
DOWN,LEFT,200,True,True,False,True,False,DOWN,DOWN
DOWN,LEFT,380,False,True,True,True,False,LEFT,LEFT
DOWN,RIGHT,210,True,False,True,True,True,RIGHT,DOWN
EQUAL,LEFT,280,False,True,True,True,False,LEFT,LEFT
DOWN,RIGHT,100,True,True,False,True,False,DOWN,DOWN
DOWN,EQUAL,160,True,True,False,True,False,DOWN,DOWN
UP,EQUAL,10,True,True,True,False,False,UP,UP
DOWN,LEFT,310,False,True,True,True,False,LEFT,LEFT
UP,EQUAL,10,True,True,True,False,False,UP,UP
UP,LEFT,350,True,True,False,True,True,DOWN,DOWN
UP,LEFT,490,False,False,True,True,False,RIGHT,RIGHT
UP,EQUAL,170,True,True,True,False,False,UP,UP
DOWN,LEFT,190,True,True,False,True,False,DOWN,DOWN
UP,RIGHT,120,True,False,True,True,False,RIGHT,RIGHT
EQUAL,LEFT,200,False,True,True,True,False,LEFT,LEFT
DOWN,LEFT,170,False,True,True,True,False,LEFT,LEFT
UP,EQUAL,10,True,True,True,False,False,UP,UP
UP,EQUAL,40,False,True,True,False,False,UP,UP
UP,LEFT,320,False,True,True,True,False,LEFT,LEFT
EQUAL,LEFT,80,False,True,True,True,False,LEFT,LEFT
DOWN,LEFT,410,True,True,False,True,False,DOWN,DOWN
UP,EQUAL,90,True,True,True,False,False,UP,UP
DOWN,LEFT,340,False,True,True,True,False,LEFT,LEFT
UP,RIGHT,90,True,True,True,False,False,UP,UP
DOWN,LEFT,280,True,True,False,True,False,DOWN,DOWN
DOWN,LEFT,130,True,True,False,True,False,DOWN,DOWN
UP,RIGHT,150,True,True,True,False,False,UP,UP
DOWN,LEFT,270,False,True,True,True,False,LEFT,LEFT
UP,LEFT,150,False,True,True,True,False,LEFT,LEFT
DOWN,LEFT,290,True,True,True,False,False,UP,UP
DOWN,RIGHT,110,True,True,False,True,False,DOWN,DOWN
EQUAL,RIGHT,70,True,True,False,True,False,DOWN,RIGHT
EQUAL,LEFT,70,False,True,True,True,False,LEFT,LEFT
DOWN,RIGHT,120,True,False,False,True,False,RIGHT,RIGHT
UP,EQUAL,120,True,True,True,False,False,UP,UP
UP,RIGHT,170,True,False,True,True,False,RIGHT,RIGHT
DOWN,LEFT,660,True,True,False,True,False,DOWN,DOWN
DOWN,LEFT,190,False,True,True,True,False,LEFT,LEFT
UP,RIGHT,160,True,False,True,True,False,RIGHT,RIGHT
EQUAL,LEFT,50,False,True,True,True,False,LEFT,LEFT
UP,RIGHT,530,True,True,True,False,False,UP,UP
UP,RIGHT,30,False,True,True,True,False,LEFT,LEFT
EQUAL,EQUAL,500,True,True,False,True,False,DOWN,DOWN
UP,RIGHT,110,True,False,True,True,False,RIGHT,RIGHT
EQUAL,LEFT,220,False,True,True,True,False,LEFT,LEFT
DOWN,RIGHT,250,True,False,True,True,False,RIGHT,RIGHT
DOWN,LEFT,100,True,True,False,True,False,DOWN,DOWN
EQUAL,LEFT,10,False,True,True,False,True,LEFT,LEFT
DOWN,RIGHT,170,True,True,False,True,True,DOWN,DOWN
UP,RIGHT,30,True,True,True,False,False,UP,UP
DOWN,RIGHT,330,True,False,True,True,False,RIGHT,RIGHT
UP,EQUAL,190,True,True,True,False,True,UP,UP
UP,RIGHT,240,True,False,True,True,False,RIGHT,RIGHT
DOWN,LEFT,300,True,True,True,False,False,UP,UP
DOWN,LEFT,220,True,True,False,True,False,DOWN,DOWN
UP,EQUAL,150,True,True,True,False,False,UP,UP
DOWN,RIGHT,110,True,False,False,True,False,RIGHT,RIGHT
DOWN,LEFT,180,True,True,True,False,False,UP,UP
DOWN,RIGHT,80,True,True,False,True,False,DOWN,DOWN
DOWN,RIGHT,130,True,True,False,True,False,DOWN,DOWN
EQUAL,LEFT,40,False,True,True,True,False,LEFT,LEFT
DOWN,LEFT,240,True,True,False,True,False,DOWN,DOWN
DOWN,LEFT,310,True,True,True,False,False,UP,UP
UP,LEFT,480,False,True,True,True,False,LEFT,LEFT
EQUAL,LEFT,130,False,True,True,True,False,LEFT,LEFT
DOWN,LEFT,310,True,True,False,True,False,DOWN,DOWN
UP,RIGHT,250,True,False,True,False,False,RIGHT,RIGHT
DOWN,RIGHT,680,True,False,True,True,False,RIGHT,RIGHT
DOWN,RIGHT,60,True,False,True,True,True,RIGHT,DOWN
UP,LEFT,270,True,True,True,False,False,UP,UP
UP,EQUAL,20,True,True,True,False,False,UP,UP
DOWN,EQUAL,10,True,True,False,True,False,DOWN,DOWN
UP,EQUAL,70,True,True,True,False,False,UP,UP
UP,RIGHT,110,False,True,True,True,False,LEFT,LEFT
UP,LEFT,440,False,True,True,True,False,LEFT,LEFT
DOWN,RIGHT,340,True,False,True,True,False,RIGHT,RIGHT
UP,RIGHT,330,True,False,True,True,False,RIGHT,RIGHT
UP,LEFT,250,True,True,True,False,False,UP,UP
DOWN,LEFT,120,True,True,False,True,False,DOWN,DOWN
EQUAL,EQUAL,270,True,True,False,True,False,DOWN,DOWN
EQUAL,RIGHT,90,True,False,True,True,False,RIGHT,RIGHT
DOWN,LEFT,400,True,True,False,True,False,DOWN,DOWN
UP,LEFT,90,True,True,False,True,False,DOWN,DOWN
DOWN,RIGHT,150,True,False,True,True,True,RIGHT,RIGHT
DOWN,RIGHT,90,True,False,True,True,False,RIGHT,RIGHT
DOWN,EQUAL,50,True,True,False,True,False,DOWN,DOWN
DOWN,LEFT,540,True,False,True,True,False,RIGHT,RIGHT
UP,RIGHT,290,True,False,True,True,False,RIGHT,RIGHT
EQUAL,LEFT,200,False,True,True,True,False,LEFT,LEFT
DOWN,RIGHT,440,True,False,True,True,False,RIGHT,RIGHT
DOWN,RIGHT,140,False,True,True,True,False,LEFT,DOWN
DOWN,RIGHT,110,True,False,True,True,False,RIGHT,RIGHT
UP,LEFT,320,True,True,True,False,False,UP,UP
DOWN,LEFT,180,True,True,False,True,False,DOWN,DOWN
DOWN,RIGHT,190,True,True,True,False,False,UP,UP
UP,LEFT,420,True,True,True,False,False,UP,UP
DOWN,LEFT,350,True,True,False,True,False,DOWN,DOWN
DOWN,LEFT,420,False,True,True,True,False,LEFT,LEFT
DOWN,RIGHT,70,True,True,False,True,False,DOWN,DOWN
EQUAL,LEFT,130,False,True,True,True,False,LEFT,LEFT
DOWN,RIGHT,290,True,True,True,False,False,UP,UP
DOWN,RIGHT,650,True,True,True,False,False,UP,UP
DOWN,LEFT,260,True,True,False,True,False,DOWN,DOWN
DOWN,LEFT,150,True,False,True,True,False,RIGHT,RIGHT
DOWN,LEFT,240,False,True,True,True,False,LEFT,LEFT
UP,RIGHT,540,True,True,True,False,False,UP,UP
UP,LEFT,300,True,True,True,False,False,UP,UP
DOWN,LEFT,70,True,True,False,False,False,UP,LEFT
DOWN,LEFT,180,False,True,True,True,False,LEFT,LEFT
DOWN,EQUAL,30,True,False,True,True,False,RIGHT,DOWN
DOWN,LEFT,270,False,True,True,True,False,LEFT,LEFT
DOWN,EQUAL,340,True,True,False,True,False,DOWN,DOWN
EQUAL,LEFT,80,False,True,True,True,False,LEFT,LEFT
DOWN,EQUAL,50,True,True,False,True,False,DOWN,DOWN
EQUAL,EQUAL,80,True,True,True,False,False,UP,UP
DOWN,RIGHT,200,True,False,True,True,False,RIGHT,RIGHT
EQUAL,LEFT,140,False,True,True,True,False,LEFT,LEFT
UP,LEFT,390,True,True,False,True,True,DOWN,DOWN
DOWN,RIGHT,400,True,False,True,True,False,RIGHT,RIGHT
DOWN,LEFT,20,False,True,True,True,False,LEFT,LEFT
DOWN,LEFT,500,False,True,True,True,False,LEFT,LEFT
UP,LEFT,100,True,False,True,True,False,RIGHT,UP
UP,RIGHT,210,True,False,True,True,False,RIGHT,RIGHT
DOWN,RIGHT,110,True,False,True,True,False,RIGHT,RIGHT
EQUAL,LEFT,10,False,True,True,True,False,LEFT,LEFT
DOWN,RIGHT,240,True,False,True,True,False,RIGHT,RIGHT
UP,EQUAL,40,True,True,True,False,False,UP,UP
DOWN,LEFT,510,False,True,True,True,False,LEFT,LEFT
UP,RIGHT,170,True,True,True,False,False,UP,UP
DOWN,RIGHT,60,True,False,True,True,False,RIGHT,RIGHT
UP,LEFT,460,True,True,False,True,False,DOWN,DOWN
UP,RIGHT,570,True,False,True,False,False,UP,UP
DOWN,LEFT,210,False,True,True,True,False,LEFT,LEFT
UP,LEFT,310,True,True,True,False,False,UP,UP
EQUAL,RIGHT,10,True,True,False,True,False,DOWN,DOWN
EQUAL,LEFT,140,False,True,True,True,False,LEFT,LEFT
UP,RIGHT,180,True,False,True,True,False,RIGHT,RIGHT
EQUAL,LEFT,30,False,True,True,True,False,LEFT,LEFT
DOWN,RIGHT,640,True,False,True,True,False,RIGHT,RIGHT
DOWN,RIGHT,40,False,True,True,True,False,LEFT,LEFT
EQUAL,LEFT,90,False,True,True,True,False,LEFT,LEFT
EQUAL,LEFT,10,True,True,False,True,False,DOWN,DOWN
UP,LEFT,220,True,True,True,False,False,UP,UP
DOWN,LEFT,360,False,True,True,True,False,LEFT,LEFT
UP,RIGHT,610,True,False,True,False,False,UP,UP
DOWN,RIGHT,280,True,True,True,False,False,UP,RIGHT
DOWN,RIGHT,670,True,True,True,False,False,UP,UP
UP,LEFT,460,False,True,True,True,False,LEFT,LEFT
UP,RIGHT,90,False,True,True,True,False,LEFT,LEFT
EQUAL,LEFT,70,False,True,True,False,True,LEFT,LEFT
DOWN,EQUAL,150,True,True,False,True,False,DOWN,DOWN
DOWN,LEFT,270,False,True,True,True,False,LEFT,LEFT
UP,RIGHT,530,True,True,True,False,False,UP,UP
EQUAL,RIGHT,20,True,False,True,True,False,RIGHT,RIGHT
UP,EQUAL,40,True,True,True,False,False,UP,UP
DOWN,RIGHT,230,True,True,True,False,False,UP,UP
DOWN,EQUAL,110,True,True,False,True,False,DOWN,DOWN
UP,RIGHT,60,True,True,True,False,False,UP,UP
UP,LEFT,480,True,False,True,False,False,UP,RIGHT
DOWN,LEFT,170,True,True,False,True,False,DOWN,DOWN
DOWN,LEFT,210,False,True,True,True,False,LEFT,LEFT
UP,RIGHT,180,True,False,True,True,False,RIGHT,RIGHT
DOWN,RIGHT,160,True,False,False,True,True,RIGHT,RIGHT
UP,LEFT,250,True,True,True,False,False,UP,UP
DOWN,LEFT,270,True,True,False,True,False,DOWN,DOWN
UP,RIGHT,140,True,False,True,True,False,RIGHT,RIGHT
UP,LEFT,30,True,False,True,True,False,RIGHT,RIGHT
UP,EQUAL,30,True,True,True,False,False,UP,UP
DOWN,LEFT,330,True,True,False,True,False,DOWN,DOWN
DOWN,RIGHT,630,True,False,True,True,False,RIGHT,RIGHT
UP,LEFT,230,True,True,True,False,False,UP,UP
DOWN,RIGHT,180,True,True,False,True,False,DOWN,DOWN
DOWN,RIGHT,220,True,False,False,True,False,RIGHT,RIGHT
DOWN,RIGHT,210,True,True,True,False,False,UP,UP
EQUAL,LEFT,190,False,True,True,True,False,LEFT,LEFT
UP,RIGHT,80,True,False,True,True,False,RIGHT,RIGHT
DOWN,LEFT,340,True,False,True,True,False,RIGHT,DOWN
DOWN,LEFT,200,False,True,True,True,False,LEFT,LEFT
DOWN,LEFT,200,False,True,True,True,False,LEFT,LEFT
UP,RIGHT,330,True,True,True,False,False,UP,UP
DOWN,RIGHT,150,True,True,False,True,False,DOWN,DOWN
UP,EQUAL,50,True,True,True,False,False,UP,UP
DOWN,EQUAL,110,True,True,False,True,False,DOWN,DOWN
DOWN,RIGHT,70,True,False,True,True,False,RIGHT,RIGHT
UP,RIGHT,360,True,True,True,False,False,UP,UP
EQUAL,LEFT,70,False,True,True,True,False,LEFT,LEFT
EQUAL,RIGHT,160,True,True,True,False,False,UP,UP
DOWN,LEFT,400,True,True,False,True,False,DOWN,DOWN
DOWN,LEFT,460,False,True,True,True,False,LEFT,LEFT
UP,EQUAL,50,True,True,True,False,False,UP,UP
DOWN,RIGHT,230,True,False,True,True,False,RIGHT,RIGHT
DOWN,EQUAL,70,True,True,False,True,False,DOWN,DOWN
UP,RIGHT,280,True,False,True,True,False,RIGHT,RIGHT
DOWN,RIGHT,260,True,False,True,True,False,RIGHT,RIGHT
UP,RIGHT,20,True,True,False,True,False,DOWN,DOWN
DOWN,EQUAL,20,True,True,False,True,False,DOWN,DOWN
UP,LEFT,470,False,True,True,True,False,LEFT,LEFT
EQUAL,LEFT,310,False,True,True,True,False,LEFT,LEFT
UP,LEFT,280,True,True,True,False,False,UP,UP
UP,EQUAL,10,True,False,True,True,False,RIGHT,RIGHT
DOWN,LEFT,240,True,True,False,True,False,DOWN,DOWN
UP,LEFT,110,True,False,True,True,False,RIGHT,RIGHT
DOWN,LEFT,110,True,True,True,False,False,UP,UP
UP,LEFT,450,True,True,False,True,False,DOWN,DOWN
DOWN,RIGHT,60,True,True,False,True,False,DOWN,DOWN
UP,RIGHT,440,True,False,True,False,False,RIGHT,RIGHT
DOWN,RIGHT,230,True,False,True,True,False,RIGHT,RIGHT
UP,RIGHT,100,True,False,True,True,False,RIGHT,RIGHT
UP,EQUAL,50,False,True,True,True,True,LEFT,UP
DOWN,RIGHT,210,True,False,True,True,False,RIGHT,RIGHT
UP,LEFT,410,True,True,True,False,False,UP,UP
UP,RIGHT,400,True,True,True,False,False,UP,UP
UP,LEFT,150,False,True,True,True,False,LEFT,LEFT
DOWN,LEFT,650,True,True,False,True,False,DOWN,DOWN
UP,EQUAL,70,True,True,True,False,False,UP,UP
DOWN,RIGHT,200,True,False,True,True,False,RIGHT,RIGHT
UP,RIGHT,130,True,False,True,True,True,RIGHT,RIGHT
DOWN,LEFT,170,True,True,True,False,False,UP,UP
DOWN,EQUAL,130,True,True,False,True,True,DOWN,DOWN
UP,RIGHT,160,True,True,True,False,False,UP,RIGHT
UP,RIGHT,250,False,True,True,True,False,LEFT,LEFT
DOWN,RIGHT,80,True,False,True,True,False,RIGHT,RIGHT
DOWN,RIGHT,210,True,False,True,True,False,RIGHT,RIGHT
UP,RIGHT,240,False,True,True,False,False,UP,UP
UP,RIGHT,40,False,True,True,True,False,LEFT,UP
EQUAL,RIGHT,20,True,False,True,True,False,RIGHT,RIGHT
UP,LEFT,240,True,True,True,False,False,UP,UP
UP,RIGHT,240,True,False,True,True,False,RIGHT,RIGHT
UP,LEFT,70,True,True,True,False,False,UP,UP
EQUAL,LEFT,60,False,True,True,True,False,LEFT,LEFT
UP,EQUAL,240,True,True,True,False,True,UP,UP
UP,EQUAL,20,True,True,True,False,False,UP,UP
UP,LEFT,50,False,True,True,True,False,LEFT,LEFT
UP,RIGHT,260,True,True,True,False,False,UP,UP
UP,EQUAL,10,True,True,True,False,False,UP,UP
EQUAL,LEFT,30,False,True,True,True,False,LEFT,LEFT
UP,EQUAL,30,False,True,True,False,False,UP,UP
EQUAL,EQUAL,380,True,True,True,False,False,UP,UP
UP,LEFT,290,True,True,True,False,False,UP,UP
DOWN,LEFT,320,False,True,True,True,False,LEFT,LEFT
EQUAL,LEFT,70,False,True,True,True,False,LEFT,LEFT
UP,LEFT,160,True,True,True,False,False,UP,UP
DOWN,RIGHT,200,True,True,False,True,False,DOWN,DOWN
UP,RIGHT,20,True,True,True,False,False,UP,UP
UP,RIGHT,180,False,True,True,True,False,LEFT,LEFT
UP,LEFT,180,True,True,True,False,False,UP,UP
DOWN,RIGHT,450,True,False,True,True,False,RIGHT,RIGHT
UP,RIGHT,260,True,True,False,True,False,DOWN,DOWN
EQUAL,RIGHT,110,True,True,False,True,False,DOWN,RIGHT
UP,LEFT,40,True,True,False,True,False,DOWN,DOWN
UP,RIGHT,450,True,True,True,False,False,UP,UP
UP,RIGHT,100,False,True,True,True,False,LEFT,LEFT
DOWN,LEFT,330,True,False,True,True,False,RIGHT,RIGHT
UP,EQUAL,50,True,True,True,False,False,UP,UP
DOWN,RIGHT,230,True,True,True,False,False,UP,UP
UP,LEFT,230,True,True,True,False,False,UP,UP
UP,EQUAL,140,False,True,True,True,False,LEFT,UP
DOWN,RIGHT,290,True,False,False,True,False,RIGHT,RIGHT
DOWN,EQUAL,180,False,True,True,True,False,LEFT,LEFT
DOWN,RIGHT,190,True,True,False,True,False,DOWN,DOWN
EQUAL,LEFT,200,False,True,True,True,False,LEFT,LEFT
DOWN,EQUAL,290,True,True,False,True,False,DOWN,LEFT
DOWN,EQUAL,40,True,True,False,True,False,DOWN,DOWN
EQUAL,EQUAL,250,True,True,True,False,False,UP,UP
UP,RIGHT,250,True,False,True,True,False,RIGHT,RIGHT
UP,RIGHT,320,True,True,True,False,False,UP,UP
EQUAL,LEFT,230,True,True,False,True,False,DOWN,LEFT
EQUAL,LEFT,240,False,True,True,True,False,LEFT,LEFT
UP,LEFT,300,True,True,True,False,False,UP,UP
DOWN,LEFT,130,True,True,False,True,False,DOWN,DOWN
UP,RIGHT,290,True,True,True,False,False,UP,UP
UP,RIGHT,290,True,False,True,True,False,RIGHT,RIGHT
UP,RIGHT,60,True,False,True,True,False,RIGHT,RIGHT
UP,RIGHT,310,True,False,True,False,False,RIGHT,RIGHT
DOWN,RIGHT,280,True,True,True,False,False,UP,UP
DOWN,RIGHT,210,True,False,True,True,False,RIGHT,RIGHT
UP,LEFT,90,True,True,True,False,False,UP,UP
DOWN,LEFT,320,True,True,True,False,False,UP,LEFT
UP,RIGHT,240,True,False,True,False,False,RIGHT,RIGHT
DOWN,LEFT,160,True,True,False,True,False,DOWN,DOWN
DOWN,RIGHT,310,True,False,True,True,False,RIGHT,RIGHT
DOWN,LEFT,100,True,True,False,True,False,DOWN,DOWN
DOWN,RIGHT,370,True,False,True,True,False,RIGHT,RIGHT
EQUAL,LEFT,100,False,True,True,True,False,LEFT,LEFT
UP,RIGHT,150,True,False,True,True,True,RIGHT,RIGHT
DOWN,LEFT,430,True,True,False,True,False,DOWN,DOWN
EQUAL,RIGHT,20,True,False,True,True,False,RIGHT,RIGHT
EQUAL,RIGHT,160,True,True,True,False,False,UP,UP
EQUAL,EQUAL,370,True,True,True,False,False,UP,UP
DOWN,RIGHT,60,True,False,True,True,False,RIGHT,RIGHT
UP,LEFT,420,False,True,True,True,False,LEFT,LEFT
EQUAL,LEFT,120,False,True,True,True,False,LEFT,LEFT
DOWN,RIGHT,160,True,True,False,True,False,DOWN,RIGHT
DOWN,RIGHT,240,True,True,False,True,False,DOWN,DOWN
UP,RIGHT,200,True,False,True,True,False,RIGHT,RIGHT
DOWN,RIGHT,270,True,False,True,True,False,RIGHT,RIGHT
UP,EQUAL,30,True,True,True,False,False,UP,UP
UP,RIGHT,50,True,False,True,True,False,RIGHT,RIGHT
DOWN,LEFT,220,False,True,True,True,False,LEFT,LEFT
DOWN,RIGHT,560,True,False,True,True,False,RIGHT,RIGHT
DOWN,RIGHT,80,True,True,False,True,False,DOWN,DOWN
DOWN,LEFT,210,False,True,True,True,False,LEFT,LEFT
EQUAL,LEFT,10,False,True,True,True,False,LEFT,LEFT
EQUAL,RIGHT,50,True,False,True,True,False,RIGHT,RIGHT
UP,LEFT,380,False,True,True,True,False,LEFT,LEFT
EQUAL,LEFT,40,False,True,True,False,True,LEFT,LEFT
EQUAL,RIGHT,60,True,False,True,True,False,RIGHT,RIGHT
DOWN,LEFT,310,False,True,True,True,False,LEFT,LEFT
UP,LEFT,500,True,True,True,False,False,UP,UP
UP,RIGHT,80,False,True,True,True,False,LEFT,LEFT
UP,EQUAL,110,True,True,True,False,True,UP,UP
UP,RIGHT,140,True,True,False,True,False,DOWN,RIGHT
UP,RIGHT,360,True,True,True,False,False,UP,UP
DOWN,EQUAL,60,True,True,False,True,False,DOWN,DOWN
DOWN,RIGHT,30,False,True,True,True,False,LEFT,LEFT
EQUAL,LEFT,180,False,True,True,True,False,LEFT,LEFT
UP,RIGHT,110,True,False,True,True,False,RIGHT,RIGHT
UP,LEFT,270,True,True,True,False,False,UP,UP
UP,LEFT,100,False,True,True,True,False,LEFT,LEFT
UP,RIGHT,40,True,True,False,True,False,DOWN,DOWN
UP,RIGHT,140,True,False,True,True,False,RIGHT,RIGHT
UP,RIGHT,350,True,True,True,False,False,UP,UP
UP,RIGHT,220,True,True,True,False,False,UP,UP
DOWN,RIGHT,260,True,True,True,False,False,UP,UP
UP,LEFT,160,False,True,True,True,False,LEFT,LEFT
DOWN,RIGHT,310,True,False,True,True,False,RIGHT,RIGHT
DOWN,EQUAL,30,True,True,False,True,False,DOWN,DOWN
DOWN,RIGHT,140,True,False,False,True,True,RIGHT,RIGHT
DOWN,RIGHT,280,True,False,True,True,False,RIGHT,RIGHT
UP,RIGHT,540,True,True,True,False,False,UP,UP
DOWN,EQUAL,100,True,True,False,True,False,DOWN,DOWN
UP,EQUAL,100,True,True,True,False,False,UP,UP
EQUAL,EQUAL,240,True,True,True,False,False,UP,UP
UP,RIGHT,470,True,False,True,True,False,RIGHT,RIGHT
EQUAL,LEFT,50,True,True,False,True,False,DOWN,LEFT
UP,RIGHT,110,True,False,True,True,False,RIGHT,RIGHT
UP,RIGHT,360,True,True,True,False,False,UP,UP
DOWN,RIGHT,150,True,True,False,True,False,DOWN,DOWN
UP,EQUAL,60,True,True,True,False,False,UP,UP
DOWN,LEFT,150,False,True,True,True,False,LEFT,LEFT
UP,RIGHT,70,True,True,False,True,False,DOWN,RIGHT
DOWN,RIGHT,100,True,True,False,True,False,DOWN,DOWN
DOWN,RIGHT,160,True,False,True,True,False,RIGHT,RIGHT
UP,LEFT,380,True,True,True,False,False,UP,UP
EQUAL,LEFT,20,False,True,True,True,False,LEFT,LEFT
DOWN,RIGHT,100,True,True,False,True,False,DOWN,DOWN
UP,LEFT,570,True,False,True,True,False,RIGHT,RIGHT
EQUAL,LEFT,160,False,True,True,True,False,LEFT,LEFT
DOWN,LEFT,330,False,True,True,True,False,LEFT,DOWN
DOWN,LEFT,40,True,True,False,True,False,DOWN,DOWN
UP,LEFT,400,True,True,False,True,True,DOWN,DOWN
DOWN,LEFT,300,False,True,True,True,False,LEFT,LEFT
UP,EQUAL,170,True,True,True,False,True,UP,UP
UP,LEFT,50,True,True,False,True,False,DOWN,DOWN
DOWN,RIGHT,160,True,False,True,True,False,RIGHT,RIGHT
DOWN,EQUAL,130,True,True,False,True,False,DOWN,DOWN
DOWN,LEFT,210,True,True,False,True,False,DOWN,DOWN
EQUAL,LEFT,40,False,True,True,True,False,LEFT,LEFT
UP,LEFT,30,True,True,False,True,False,DOWN,LEFT
UP,RIGHT,480,True,True,True,False,False,UP,UP
UP,RIGHT,50,True,False,True,True,False,RIGHT,RIGHT
EQUAL,LEFT,220,False,True,True,True,False,LEFT,LEFT
EQUAL,EQUAL,370,True,False,True,True,False,RIGHT,RIGHT
UP,RIGHT,280,True,False,True,True,False,RIGHT,RIGHT
UP,LEFT,50,True,True,False,True,False,DOWN,DOWN
UP,RIGHT,30,False,True,True,True,False,LEFT,LEFT
EQUAL,LEFT,210,False,True,True,True,False,LEFT,LEFT
EQUAL,LEFT,200,True,True,True,False,False,UP,UP
UP,LEFT,40,False,True,True,True,False,LEFT,LEFT
UP,EQUAL,160,True,True,True,False,False,UP,UP
DOWN,RIGHT,90,True,True,False,True,False,DOWN,DOWN
DOWN,LEFT,60,False,True,True,True,False,LEFT,LEFT
DOWN,RIGHT,70,True,False,True,True,False,RIGHT,RIGHT
DOWN,RIGHT,140,True,True,False,True,False,DOWN,DOWN
EQUAL,RIGHT,10,True,False,True,True,False,RIGHT,RIGHT
DOWN,RIGHT,190,True,True,False,True,False,DOWN,DOWN
DOWN,RIGHT,40,True,False,True,True,True,RIGHT,RIGHT
UP,LEFT,240,True,True,True,False,False,UP,UP
DOWN,RIGHT,250,True,False,True,True,False,RIGHT,RIGHT
DOWN,LEFT,590,True,True,False,True,False,DOWN,DOWN
DOWN,LEFT,140,True,True,False,True,False,DOWN,DOWN
UP,LEFT,40,True,False,True,True,False,RIGHT,RIGHT
EQUAL,LEFT,110,False,True,True,True,False,LEFT,LEFT
DOWN,RIGHT,370,True,False,True,True,False,RIGHT,RIGHT
UP,RIGHT,550,True,False,True,False,False,UP,UP
DOWN,LEFT,200,True,True,False,True,False,DOWN,DOWN
DOWN,EQUAL,20,True,True,False,True,False,DOWN,DOWN
DOWN,LEFT,230,True,True,False,True,False,DOWN,DOWN
EQUAL,RIGHT,10,True,True,True,False,False,UP,UP
UP,RIGHT,490,True,False,True,False,False,RIGHT,RIGHT
DOWN,LEFT,160,True,True,False,True,False,DOWN,DOWN
EQUAL,RIGHT,40,True,False,True,True,False,RIGHT,RIGHT
DOWN,RIGHT,100,True,False,True,True,False,RIGHT,RIGHT
DOWN,LEFT,80,False,True,True,True,True,LEFT,LEFT
DOWN,EQUAL,10,True,True,False,True,False,DOWN,DOWN
UP,RIGHT,350,True,False,True,True,False,RIGHT,RIGHT
UP,RIGHT,260,True,True,True,False,False,UP,RIGHT
DOWN,LEFT,130,True,True,True,False,False,UP,UP
UP,LEFT,290,True,True,True,False,False,UP,UP
UP,LEFT,20,True,True,False,True,False,DOWN,DOWN
DOWN,LEFT,300,False,True,True,True,False,LEFT,LEFT
UP,EQUAL,160,True,True,True,False,False,UP,UP
EQUAL,RIGHT,20,True,True,False,True,False,DOWN,RIGHT
DOWN,RIGHT,130,True,False,True,True,False,RIGHT,RIGHT
DOWN,RIGHT,260,True,False,True,True,False,RIGHT,RIGHT
UP,LEFT,400,True,True,True,False,False,UP,UP
DOWN,RIGHT,60,True,False,True,True,False,RIGHT,RIGHT
DOWN,RIGHT,60,True,False,True,True,True,RIGHT,RIGHT
UP,EQUAL,10,True,True,True,False,False,UP,UP
DOWN,LEFT,400,False,True,True,True,False,LEFT,LEFT
UP,RIGHT,410,True,False,True,False,False,RIGHT,RIGHT
DOWN,RIGHT,690,True,True,True,False,False,UP,RIGHT
DOWN,RIGHT,200,True,False,False,True,True,RIGHT,RIGHT
DOWN,EQUAL,110,True,True,False,True,True,DOWN,DOWN
DOWN,RIGHT,160,True,True,False,True,False,DOWN,DOWN
UP,RIGHT,240,True,False,True,True,False,RIGHT,RIGHT
DOWN,LEFT,110,False,True,True,True,False,LEFT,LEFT
DOWN,RIGHT,150,True,False,True,True,False,RIGHT,RIGHT
DOWN,RIGHT,50,True,True,False,True,False,DOWN,DOWN
DOWN,EQUAL,100,True,True,False,True,False,DOWN,DOWN
DOWN,LEFT,340,False,True,True,True,False,LEFT,LEFT
DOWN,EQUAL,90,True,True,False,True,False,DOWN,DOWN
UP,RIGHT,40,True,True,True,False,False,UP,UP
DOWN,RIGHT,140,True,False,True,True,False,RIGHT,RIGHT
UP,EQUAL,50,True,True,True,False,False,UP,UP
DOWN,RIGHT,300,True,True,False,True,False,DOWN,DOWN
DOWN,LEFT,470,False,True,True,True,False,LEFT,LEFT
DOWN,RIGHT,70,True,True,True,False,False,UP,UP
UP,EQUAL,10,True,True,True,False,False,UP,UP
UP,LEFT,320,True,True,True,False,False,UP,UP
DOWN,LEFT,50,False,True,True,True,False,LEFT,LEFT
UP,LEFT,510,True,True,True,False,False,UP,UP
DOWN,LEFT,60,False,True,False,True,False,LEFT,LEFT
UP,EQUAL,70,True,False,True,True,False,RIGHT,UP
EQUAL,LEFT,50,False,True,True,True,False,LEFT,LEFT
UP,RIGHT,160,True,True,True,False,False,UP,UP
DOWN,RIGHT,100,True,False,True,True,False,RIGHT,RIGHT
DOWN,LEFT,30,True,True,False,True,False,DOWN,DOWN
DOWN,RIGHT,50,True,True,False,True,False,DOWN,DOWN
UP,RIGHT,370,True,True,True,False,True,UP,RIGHT
UP,RIGHT,380,True,False,True,False,False,RIGHT,RIGHT
DOWN,LEFT,410,False,True,True,True,False,LEFT,LEFT
UP,RIGHT,60,True,False,True,True,False,RIGHT,RIGHT
EQUAL,RIGHT,10,True,False,True,True,False,RIGHT,RIGHT
EQUAL,RIGHT,10,True,False,True,True,False,RIGHT,RIGHT
DOWN,RIGHT,60,True,True,True,False,False,UP,UP
UP,RIGHT,150,True,True,True,False,False,UP,UP
DOWN,LEFT,390,False,True,True,True,False,LEFT,LEFT
EQUAL,LEFT,180,False,True,True,True,False,LEFT,LEFT
UP,EQUAL,20,True,True,True,False,False,UP,UP
EQUAL,RIGHT,10,True,True,False,True,False,DOWN,DOWN
DOWN,LEFT,280,True,True,False,True,False,DOWN,DOWN
DOWN,EQUAL,30,True,True,False,True,False,DOWN,DOWN
DOWN,EQUAL,100,True,True,False,True,False,DOWN,DOWN
DOWN,LEFT,450,True,True,False,True,False,DOWN,DOWN
UP,RIGHT,340,True,True,True,False,False,UP,UP
UP,RIGHT,180,True,True,True,False,False,UP,UP
EQUAL,LEFT,140,False,True,True,True,False,LEFT,LEFT
DOWN,RIGHT,110,True,True,False,True,False,DOWN,DOWN
DOWN,RIGHT,130,True,True,False,True,False,DOWN,DOWN
EQUAL,LEFT,150,False,True,True,True,False,LEFT,LEFT
DOWN,RIGHT,280,True,False,True,True,False,RIGHT,RIGHT
UP,LEFT,140,False,True,True,True,False,LEFT,LEFT
UP,RIGHT,370,True,True,True,False,False,UP,UP
DOWN,EQUAL,90,True,True,False,True,False,DOWN,DOWN
DOWN,LEFT,660,True,False,True,True,False,RIGHT,RIGHT
DOWN,LEFT,70,False,True,True,True,False,LEFT,LEFT
DOWN,LEFT,230,False,True,True,True,False,LEFT,LEFT
DOWN,EQUAL,10,True,False,False,True,False,RIGHT,RIGHT
UP,RIGHT,470,True,True,True,False,False,UP,UP
DOWN,RIGHT,660,True,False,True,True,False,RIGHT,RIGHT
DOWN,RIGHT,180,True,False,True,True,False,RIGHT,RIGHT
DOWN,RIGHT,280,True,True,False,True,False,DOWN,DOWN
DOWN,RIGHT,430,True,False,True,True,False,RIGHT,RIGHT
DOWN,RIGHT,30,True,True,True,False,False,UP,UP
DOWN,LEFT,210,True,True,True,False,False,UP,LEFT
UP,RIGHT,90,False,True,True,True,False,LEFT,LEFT
EQUAL,RIGHT,90,True,False,True,True,False,RIGHT,RIGHT
DOWN,LEFT,210,True,True,True,False,False,UP,UP
DOWN,RIGHT,290,True,False,True,True,False,RIGHT,RIGHT
DOWN,RIGHT,410,True,False,True,True,False,RIGHT,RIGHT
DOWN,RIGHT,170,True,True,False,True,False,DOWN,DOWN
DOWN,LEFT,210,True,True,False,True,False,DOWN,DOWN
EQUAL,LEFT,40,False,True,True,True,False,LEFT,LEFT
UP,LEFT,30,True,True,False,True,False,DOWN,DOWN
UP,EQUAL,60,True,True,True,False,False,UP,UP
UP,EQUAL,70,True,True,True,False,False,UP,UP
DOWN,RIGHT,260,True,True,True,False,False,UP,RIGHT
DOWN,EQUAL,10,False,True,True,True,False,LEFT,LEFT
UP,LEFT,90,True,False,True,True,False,RIGHT,UP
UP,RIGHT,320,True,False,True,True,False,RIGHT,RIGHT
EQUAL,LEFT,60,False,True,True,False,True,LEFT,LEFT
DOWN,LEFT,460,True,True,False,True,False,DOWN,DOWN
UP,LEFT,120,True,False,True,True,False,RIGHT,RIGHT
UP,LEFT,250,True,True,False,True,False,DOWN,DOWN
EQUAL,LEFT,10,True,True,False,True,False,DOWN,DOWN
DOWN,LEFT,470,False,True,True,True,False,LEFT,LEFT
DOWN,LEFT,330,True,True,False,True,False,DOWN,DOWN
UP,RIGHT,170,True,False,True,True,False,RIGHT,RIGHT
UP,LEFT,80,True,False,True,True,False,RIGHT,RIGHT
DOWN,RIGHT,180,True,False,True,True,False,RIGHT,RIGHT
UP,RIGHT,190,True,False,True,True,False,RIGHT,RIGHT
DOWN,LEFT,130,True,False,True,True,False,RIGHT,RIGHT
UP,RIGHT,210,True,False,True,False,False,RIGHT,RIGHT
UP,RIGHT,50,True,True,True,False,False,UP,UP
DOWN,RIGHT,240,True,True,False,True,False,DOWN,DOWN
UP,RIGHT,130,True,True,True,False,False,UP,UP
DOWN,RIGHT,170,False,True,True,True,False,LEFT,LEFT
DOWN,LEFT,500,False,True,True,True,False,LEFT,LEFT
DOWN,LEFT,510,True,True,True,False,False,UP,UP
DOWN,LEFT,240,True,True,False,True,False,DOWN,DOWN
UP,RIGHT,240,True,False,True,True,False,RIGHT,RIGHT
DOWN,EQUAL,20,True,True,False,True,False,DOWN,DOWN
UP,LEFT,160,True,True,False,True,False,DOWN,LEFT
UP,RIGHT,290,True,False,True,False,False,RIGHT,RIGHT
DOWN,LEFT,140,False,True,True,True,False,LEFT,DOWN
UP,LEFT,240,False,True,True,True,False,LEFT,LEFT
DOWN,RIGHT,20,True,False,False,True,False,RIGHT,RIGHT
UP,LEFT,190,True,True,True,False,False,UP,UP
DOWN,EQUAL,110,True,True,False,True,False,DOWN,DOWN
DOWN,RIGHT,120,True,False,True,True,True,RIGHT,RIGHT
UP,RIGHT,280,True,False,True,True,False,RIGHT,RIGHT
UP,LEFT,190,False,True,True,True,False,LEFT,LEFT
DOWN,LEFT,340,False,True,True,True,False,LEFT,LEFT
DOWN,LEFT,410,False,True,True,True,False,LEFT,LEFT
DOWN,EQUAL,10,True,True,False,True,False,DOWN,DOWN
DOWN,RIGHT,80,True,True,False,True,False,DOWN,DOWN
DOWN,EQUAL,190,True,True,False,True,False,DOWN,DOWN
EQUAL,EQUAL,360,False,True,True,True,False,LEFT,LEFT
DOWN,LEFT,200,True,True,False,True,False,DOWN,DOWN
DOWN,RIGHT,40,True,True,False,True,False,DOWN,DOWN
DOWN,LEFT,280,True,True,False,True,False,DOWN,DOWN
DOWN,LEFT,210,False,True,True,True,False,LEFT,LEFT
DOWN,RIGHT,120,True,True,False,True,False,DOWN,DOWN
UP,RIGHT,160,True,False,True,True,False,RIGHT,RIGHT
EQUAL,EQUAL,170,False,True,True,True,False,LEFT,LEFT
UP,RIGHT,560,True,True,True,False,False,UP,UP
UP,EQUAL,170,False,True,True,True,False,LEFT,LEFT
UP,RIGHT,130,True,True,True,False,False,UP,UP
UP,LEFT,490,True,True,True,False,False,UP,UP
DOWN,RIGHT,150,True,False,False,True,False,RIGHT,RIGHT
UP,EQUAL,10,False,True,True,True,False,LEFT,UP
EQUAL,LEFT,150,True,True,False,True,False,DOWN,DOWN
DOWN,LEFT,480,False,True,True,True,False,LEFT,LEFT
UP,LEFT,300,True,True,True,False,False,UP,UP
UP,EQUAL,120,True,True,True,False,True,UP,UP
DOWN,RIGHT,50,True,True,False,True,False,DOWN,DOWN
UP,EQUAL,60,True,True,True,False,False,UP,UP
DOWN,RIGHT,90,False,True,True,True,False,LEFT,DOWN
DOWN,RIGHT,140,True,True,False,True,False,DOWN,RIGHT
DOWN,EQUAL,10,True,False,True,True,False,RIGHT,DOWN
DOWN,LEFT,150,True,True,False,True,False,DOWN,DOWN
DOWN,LEFT,100,True,True,True,False,False,UP,UP
DOWN,RIGHT,100,True,False,True,True,False,RIGHT,RIGHT
UP,RIGHT,230,True,False,True,True,False,RIGHT,RIGHT
DOWN,RIGHT,270,True,False,True,True,False,RIGHT,RIGHT
UP,LEFT,40,False,True,True,True,False,LEFT,LEFT
DOWN,LEFT,120,False,True,True,True,False,LEFT,LEFT
DOWN,RIGHT,610,True,False,True,True,False,RIGHT,RIGHT
UP,RIGHT,330,True,False,True,False,False,RIGHT,RIGHT
UP,LEFT,340,True,True,True,False,False,UP,UP
DOWN,RIGHT,140,True,False,True,True,False,RIGHT,RIGHT
UP,EQUAL,140,True,True,True,False,False,UP,UP
DOWN,EQUAL,40,True,True,False,True,False,DOWN,DOWN
DOWN,LEFT,120,True,True,False,True,False,DOWN,DOWN
DOWN,RIGHT,360,True,False,True,True,False,RIGHT,RIGHT
UP,LEFT,260,True,True,True,False,False,UP,UP
UP,RIGHT,400,True,False,True,True,False,RIGHT,RIGHT
DOWN,EQUAL,80,True,True,False,True,False,DOWN,DOWN
UP,RIGHT,400,True,False,True,True,False,RIGHT,UP
UP,RIGHT,440,True,True,True,False,False,UP,UP
UP,RIGHT,430,True,False,True,False,False,RIGHT,RIGHT
EQUAL,LEFT,10,False,True,True,True,False,LEFT,LEFT
DOWN,LEFT,640,True,True,False,True,False,DOWN,DOWN
DOWN,LEFT,240,False,True,True,True,False,LEFT,LEFT
DOWN,RIGHT,20,False,True,True,True,False,LEFT,LEFT
DOWN,EQUAL,100,True,True,False,True,False,DOWN,DOWN
UP,RIGHT,220,True,False,True,True,False,RIGHT,RIGHT
DOWN,RIGHT,40,True,True,False,True,False,DOWN,DOWN
DOWN,LEFT,290,False,True,True,True,False,LEFT,LEFT
UP,LEFT,220,True,True,True,False,False,UP,UP
EQUAL,LEFT,290,False,True,True,True,False,LEFT,LEFT
DOWN,LEFT,250,True,True,False,True,False,DOWN,DOWN
UP,LEFT,90,True,True,False,True,False,DOWN,LEFT
UP,RIGHT,240,True,True,False,True,False,DOWN,DOWN
DOWN,LEFT,410,False,True,True,True,False,LEFT,LEFT
UP,LEFT,80,False,True,True,True,False,LEFT,LEFT
EQUAL,LEFT,100,False,True,True,True,False,LEFT,LEFT
DOWN,LEFT,320,False,True,True,True,False,LEFT,LEFT
DOWN,RIGHT,380,True,False,True,True,False,RIGHT,RIGHT
DOWN,LEFT,200,False,True,True,True,False,LEFT,LEFT
UP,LEFT,470,True,True,True,False,False,UP,UP
DOWN,RIGHT,160,True,True,False,True,False,DOWN,DOWN
UP,RIGHT,190,False,True,True,True,False,LEFT,LEFT
UP,RIGHT,460,True,True,True,False,False,UP,UP
DOWN,LEFT,460,False,True,True,True,False,LEFT,LEFT
DOWN,LEFT,80,True,True,False,True,False,DOWN,DOWN
UP,RIGHT,140,True,False,True,True,False,RIGHT,RIGHT
UP,RIGHT,220,False,True,True,True,False,LEFT,LEFT
DOWN,LEFT,360,True,True,False,True,False,DOWN,DOWN
DOWN,RIGHT,30,True,False,True,True,True,RIGHT,DOWN
DOWN,LEFT,50,True,False,True,True,False,RIGHT,DOWN
UP,RIGHT,220,True,True,True,False,False,UP,UP
UP,RIGHT,210,True,False,True,True,False,RIGHT,RIGHT
UP,RIGHT,420,True,True,True,False,False,UP,UP
UP,RIGHT,270,True,True,True,False,False,UP,UP
DOWN,RIGHT,490,True,True,False,True,False,DOWN,DOWN
DOWN,LEFT,20,True,True,False,True,False,DOWN,DOWN
UP,RIGHT,270,True,True,True,False,False,UP,UP
DOWN,EQUAL,50,True,False,True,True,False,RIGHT,DOWN
UP,RIGHT,70,True,True,False,True,False,DOWN,DOWN
EQUAL,LEFT,60,False,True,True,True,False,LEFT,LEFT
UP,RIGHT,250,True,True,False,True,False,DOWN,DOWN
UP,RIGHT,290,True,False,True,True,False,RIGHT,RIGHT
DOWN,LEFT,530,False,True,True,True,False,LEFT,LEFT
EQUAL,EQUAL,510,True,False,False,True,False,RIGHT,RIGHT
UP,LEFT,70,True,False,True,True,False,RIGHT,RIGHT
UP,LEFT,370,True,True,False,True,True,DOWN,DOWN
EQUAL,LEFT,260,False,True,True,True,False,LEFT,LEFT
DOWN,LEFT,40,False,True,True,True,False,LEFT,LEFT
DOWN,RIGHT,250,True,True,False,True,False,DOWN,DOWN
UP,RIGHT,40,True,True,True,False,False,UP,UP
UP,RIGHT,380,True,True,True,False,False,UP,UP
DOWN,RIGHT,180,True,True,False,True,False,DOWN,DOWN
EQUAL,RIGHT,20,True,False,True,True,False,RIGHT,RIGHT
EQUAL,EQUAL,200,True,True,True,False,False,UP,UP
DOWN,RIGHT,140,True,False,True,True,False,RIGHT,RIGHT
DOWN,LEFT,380,True,True,False,True,False,DOWN,DOWN
DOWN,LEFT,200,True,True,False,True,False,DOWN,DOWN
DOWN,LEFT,170,True,True,False,True,False,DOWN,DOWN
DOWN,LEFT,330,True,True,False,True,False,DOWN,DOWN
UP,RIGHT,450,True,True,True,False,False,UP,UP
DOWN,RIGHT,380,True,False,True,True,False,RIGHT,RIGHT
UP,LEFT,240,True,True,True,False,False,UP,UP
DOWN,RIGHT,300,True,True,True,False,False,UP,RIGHT
UP,RIGHT,340,True,True,True,False,False,UP,UP
DOWN,EQUAL,70,False,True,True,True,False,LEFT,DOWN
UP,LEFT,170,True,True,True,False,False,UP,UP
EQUAL,LEFT,170,True,True,True,False,False,UP,UP
DOWN,LEFT,150,True,True,False,True,False,DOWN,DOWN
UP,RIGHT,300,True,False,True,True,False,RIGHT,RIGHT
DOWN,RIGHT,130,True,False,True,True,False,RIGHT,DOWN
DOWN,RIGHT,20,True,True,True,False,False,UP,UP
UP,EQUAL,130,True,True,True,False,False,UP,UP
DOWN,EQUAL,40,True,True,False,True,False,DOWN,DOWN
DOWN,LEFT,240,True,True,False,True,False,DOWN,DOWN
DOWN,LEFT,460,True,True,False,True,False,DOWN,DOWN
EQUAL,RIGHT,30,True,False,True,True,False,RIGHT,RIGHT
UP,RIGHT,170,True,True,True,False,False,UP,UP
DOWN,EQUAL,60,True,True,False,True,False,DOWN,DOWN
UP,EQUAL,60,True,True,True,False,False,UP,UP
DOWN,LEFT,460,False,True,True,True,False,LEFT,LEFT
DOWN,RIGHT,110,True,True,False,True,False,DOWN,DOWN
DOWN,RIGHT,140,True,True,False,True,False,DOWN,DOWN
DOWN,RIGHT,320,True,False,True,True,False,RIGHT,RIGHT
UP,RIGHT,230,True,True,True,False,False,UP,UP
UP,RIGHT,260,True,False,True,True,False,RIGHT,RIGHT
DOWN,RIGHT,170,True,False,True,True,False,RIGHT,RIGHT
EQUAL,RIGHT,10,True,False,False,True,False,RIGHT,RIGHT
UP,LEFT,410,True,True,True,False,False,UP,UP
UP,LEFT,210,True,True,True,False,False,UP,UP
UP,RIGHT,370,True,False,True,True,False,RIGHT,RIGHT
DOWN,LEFT,360,False,True,True,True,False,LEFT,LEFT
EQUAL,LEFT,150,False,True,True,True,False,LEFT,LEFT
DOWN,RIGHT,190,False,True,True,True,False,LEFT,LEFT
EQUAL,LEFT,80,False,True,True,True,False,LEFT,LEFT
DOWN,LEFT,350,False,True,True,True,False,LEFT,LEFT
EQUAL,RIGHT,20,True,True,False,False,True,DOWN,RIGHT
EQUAL,RIGHT,230,True,True,True,False,False,UP,UP
UP,RIGHT,350,True,True,True,False,False,UP,UP
EQUAL,LEFT,280,False,True,True,True,False,LEFT,LEFT
UP,RIGHT,340,True,False,True,True,False,RIGHT,RIGHT
UP,LEFT,20,False,True,True,True,False,LEFT,LEFT
UP,LEFT,70,False,True,True,True,False,LEFT,LEFT
UP,EQUAL,20,True,True,True,False,False,UP,UP
DOWN,EQUAL,230,True,True,False,True,False,DOWN,DOWN
EQUAL,LEFT,50,False,True,True,True,False,LEFT,LEFT
DOWN,LEFT,50,False,True,False,True,False,LEFT,LEFT
DOWN,RIGHT,270,True,True,False,True,False,DOWN,DOWN
UP,EQUAL,30,True,True,True,False,False,UP,UP
DOWN,RIGHT,460,True,False,True,True,False,RIGHT,RIGHT
DOWN,LEFT,110,False,True,True,True,False,LEFT,LEFT
EQUAL,RIGHT,40,True,False,True,True,False,RIGHT,RIGHT
DOWN,LEFT,160,True,True,False,True,False,DOWN,DOWN
DOWN,LEFT,100,False,True,True,True,False,LEFT,LEFT
UP,EQUAL,40,True,True,True,False,False,UP,UP
DOWN,LEFT,210,False,True,True,True,False,LEFT,LEFT
UP,EQUAL,60,True,True,True,False,False,UP,UP
EQUAL,RIGHT,90,True,True,True,False,False,UP,UP
UP,RIGHT,460,True,False,True,True,False,RIGHT,RIGHT
EQUAL,EQUAL,560,True,False,True,False,False,RIGHT,UP
DOWN,RIGHT,300,True,False,True,True,False,RIGHT,RIGHT
EQUAL,LEFT,10,False,True,True,True,False,LEFT,LEFT
DOWN,LEFT,320,True,True,False,True,False,DOWN,DOWN
UP,RIGHT,530,True,True,True,False,False,UP,UP
DOWN,RIGHT,40,True,True,False,True,False,DOWN,DOWN
UP,LEFT,60,True,True,False,True,True,DOWN,LEFT
UP,LEFT,270,True,True,True,False,False,UP,UP
EQUAL,RIGHT,30,True,False,False,True,False,RIGHT,RIGHT
DOWN,RIGHT,320,True,False,True,True,False,RIGHT,RIGHT
DOWN,RIGHT,170,True,False,True,True,False,RIGHT,RIGHT
UP,LEFT,210,False,True,True,True,False,LEFT,LEFT
UP,EQUAL,240,True,True,True,False,False,UP,UP
UP,RIGHT,270,True,False,True,True,False,RIGHT,RIGHT
DOWN,LEFT,190,True,True,False,True,False,DOWN,DOWN
EQUAL,LEFT,110,False,True,True,False,True,LEFT,LEFT
DOWN,LEFT,260,False,True,True,True,False,LEFT,LEFT
DOWN,RIGHT,260,True,True,False,True,False,DOWN,DOWN
DOWN,LEFT,330,False,True,True,True,False,LEFT,LEFT
DOWN,LEFT,110,True,True,False,True,False,DOWN,DOWN
DOWN,EQUAL,170,True,True,False,True,False,DOWN,DOWN
DOWN,RIGHT,150,True,False,False,True,True,RIGHT,RIGHT
UP,LEFT,40,True,True,False,True,False,DOWN,DOWN
EQUAL,LEFT,100,False,True,True,True,False,LEFT,LEFT
DOWN,LEFT,120,True,True,False,True,False,DOWN,DOWN
UP,LEFT,80,True,False,True,True,False,RIGHT,RIGHT
DOWN,LEFT,440,False,True,True,True,False,LEFT,LEFT
DOWN,RIGHT,170,True,True,True,False,False,UP,UP
DOWN,LEFT,160,False,True,True,True,False,LEFT,LEFT
DOWN,EQUAL,40,True,True,False,True,False,DOWN,DOWN
EQUAL,RIGHT,50,True,False,True,True,False,RIGHT,RIGHT
DOWN,EQUAL,10,True,True,False,True,False,DOWN,DOWN
UP,EQUAL,50,False,True,True,True,False,LEFT,UP
EQUAL,EQUAL,620,False,False,True,False,True,LEFT,UP
DOWN,RIGHT,160,True,False,True,True,False,RIGHT,RIGHT
DOWN,RIGHT,640,False,True,True,True,False,LEFT,UP
DOWN,LEFT,320,True,True,False,True,False,DOWN,DOWN
DOWN,LEFT,40,True,True,False,True,False,DOWN,DOWN
UP,RIGHT,140,True,False,True,True,False,RIGHT,RIGHT
DOWN,LEFT,530,True,True,False,True,False,DOWN,DOWN
UP,RIGHT,290,True,True,True,False,False,UP,UP
EQUAL,LEFT,130,False,True,True,True,False,LEFT,LEFT
UP,LEFT,530,True,True,True,False,False,UP,UP
UP,LEFT,40,True,False,True,True,False,RIGHT,RIGHT
UP,LEFT,50,False,True,True,True,False,LEFT,LEFT
DOWN,LEFT,470,True,False,True,True,False,RIGHT,DOWN
DOWN,LEFT,20,True,True,False,True,False,DOWN,DOWN
EQUAL,LEFT,110,False,True,True,True,False,LEFT,LEFT
UP,LEFT,180,False,True,True,True,False,LEFT,LEFT
DOWN,RIGHT,650,True,False,True,True,False,RIGHT,RIGHT
DOWN,RIGHT,680,True,True,True,False,False,UP,UP
DOWN,LEFT,190,True,True,True,False,False,UP,UP
UP,RIGHT,270,True,True,True,False,False,UP,UP
UP,LEFT,310,True,True,True,False,False,UP,UP
DOWN,RIGHT,20,True,False,True,True,False,RIGHT,RIGHT
UP,RIGHT,500,True,True,True,False,False,UP,UP
UP,LEFT,120,False,True,True,True,False,LEFT,LEFT
UP,RIGHT,250,True,True,True,False,False,UP,UP
EQUAL,LEFT,40,False,True,True,True,False,LEFT,LEFT
DOWN,LEFT,380,False,True,True,True,False,LEFT,LEFT
EQUAL,LEFT,10,False,True,True,True,False,LEFT,LEFT
UP,RIGHT,210,True,False,True,True,False,RIGHT,RIGHT
UP,EQUAL,100,True,True,True,False,False,UP,UP
DOWN,RIGHT,210,True,True,False,True,False,DOWN,DOWN
UP,EQUAL,30,True,True,True,False,False,UP,UP
DOWN,LEFT,90,True,True,False,True,False,DOWN,LEFT
UP,RIGHT,480,True,True,True,False,False,UP,UP
DOWN,RIGHT,660,True,True,True,False,False,UP,UP
DOWN,RIGHT,220,True,False,True,True,False,RIGHT,RIGHT
UP,RIGHT,90,True,False,True,True,False,RIGHT,RIGHT
DOWN,RIGHT,80,True,True,False,True,False,DOWN,DOWN
DOWN,RIGHT,60,True,False,True,True,False,RIGHT,RIGHT
UP,RIGHT,100,True,False,True,True,False,RIGHT,RIGHT
EQUAL,RIGHT,100,True,False,True,True,False,RIGHT,RIGHT
UP,EQUAL,50,False,True,True,False,False,UP,UP
DOWN,RIGHT,30,True,True,False,True,False,DOWN,DOWN
DOWN,EQUAL,10,True,False,False,True,True,DOWN,DOWN
DOWN,LEFT,310,False,True,True,True,False,LEFT,LEFT
DOWN,LEFT,470,True,True,False,True,False,DOWN,DOWN
UP,EQUAL,30,True,True,True,False,False,UP,UP
DOWN,LEFT,190,True,True,False,True,False,DOWN,DOWN
UP,EQUAL,40,True,True,True,False,False,UP,UP
DOWN,LEFT,350,True,True,False,True,False,DOWN,DOWN
UP,LEFT,410,True,False,True,True,False,RIGHT,RIGHT
EQUAL,LEFT,300,False,True,True,True,False,LEFT,LEFT
EQUAL,LEFT,80,False,True,True,False,True,LEFT,LEFT
UP,RIGHT,150,True,True,True,False,False,UP,UP
DOWN,EQUAL,310,True,True,False,True,False,DOWN,DOWN
DOWN,LEFT,140,False,True,True,True,False,LEFT,LEFT
DOWN,RIGHT,230,True,True,True,False,False,UP,UP
UP,RIGHT,310,True,True,True,False,False,UP,UP
UP,LEFT,130,True,False,True,True,True,RIGHT,UP
DOWN,EQUAL,260,True,True,False,True,True,DOWN,DOWN
EQUAL,LEFT,100,False,True,True,True,False,LEFT,LEFT
DOWN,LEFT,280,False,True,True,True,False,LEFT,LEFT
UP,RIGHT,180,True,False,True,True,True,RIGHT,RIGHT
DOWN,LEFT,210,True,True,True,False,False,UP,UP
UP,RIGHT,330,True,True,True,False,False,UP,UP
UP,RIGHT,300,True,False,True,True,False,RIGHT,RIGHT
UP,EQUAL,80,True,True,True,False,False,UP,UP
UP,LEFT,60,True,False,True,True,False,RIGHT,RIGHT
EQUAL,RIGHT,10,True,False,True,True,False,RIGHT,RIGHT
DOWN,RIGHT,100,True,True,False,True,False,DOWN,DOWN
UP,EQUAL,40,True,False,True,False,False,UP,UP
DOWN,LEFT,500,False,True,True,True,False,LEFT,LEFT
UP,RIGHT,450,True,False,True,False,False,RIGHT,RIGHT
DOWN,RIGHT,580,True,False,True,True,False,RIGHT,RIGHT
UP,RIGHT,40,False,True,True,True,False,LEFT,LEFT
UP,RIGHT,100,True,True,True,False,False,UP,UP
UP,RIGHT,230,True,True,False,True,False,DOWN,RIGHT
UP,RIGHT,380,True,True,True,False,False,UP,UP
UP,RIGHT,20,True,True,False,True,False,DOWN,DOWN
DOWN,RIGHT,240,True,False,False,True,False,RIGHT,RIGHT
UP,RIGHT,220,True,False,True,False,False,RIGHT,RIGHT
UP,RIGHT,320,True,False,True,True,False,RIGHT,RIGHT
UP,EQUAL,40,True,False,True,True,False,RIGHT,RIGHT
DOWN,LEFT,140,True,True,False,True,False,DOWN,DOWN
UP,LEFT,80,True,True,False,True,False,DOWN,DOWN
DOWN,RIGHT,130,True,True,False,True,False,DOWN,DOWN
DOWN,LEFT,270,True,True,False,True,False,DOWN,DOWN
DOWN,LEFT,220,True,True,True,False,False,UP,LEFT
DOWN,RIGHT,210,True,False,True,True,False,RIGHT,RIGHT
UP,LEFT,430,True,True,True,False,False,UP,UP
UP,LEFT,310,False,True,True,True,False,LEFT,LEFT
UP,RIGHT,330,True,False,True,True,False,RIGHT,RIGHT
UP,RIGHT,120,False,True,True,True,False,LEFT,LEFT
DOWN,LEFT,280,True,True,True,False,False,UP,UP
EQUAL,LEFT,20,False,True,True,True,False,LEFT,LEFT
UP,LEFT,290,True,True,True,False,False,UP,UP
UP,RIGHT,300,True,False,True,True,False,RIGHT,RIGHT
DOWN,LEFT,620,True,True,False,True,False,DOWN,DOWN
EQUAL,RIGHT,40,True,False,True,True,False,RIGHT,RIGHT
UP,RIGHT,310,True,True,True,False,False,UP,UP
DOWN,RIGHT,420,True,True,False,True,False,DOWN,DOWN
DOWN,LEFT,140,False,True,True,True,False,LEFT,LEFT
EQUAL,RIGHT,30,True,False,True,False,False,RIGHT,RIGHT
UP,RIGHT,310,True,False,True,True,False,RIGHT,RIGHT
UP,RIGHT,270,True,False,True,True,False,RIGHT,RIGHT
DOWN,RIGHT,540,True,False,True,True,False,RIGHT,RIGHT
DOWN,LEFT,510,True,True,False,True,False,DOWN,LEFT
UP,LEFT,280,False,True,True,True,False,LEFT,LEFT
DOWN,LEFT,250,True,True,False,True,False,DOWN,DOWN
DOWN,LEFT,120,True,True,False,True,False,DOWN,DOWN
DOWN,LEFT,100,True,False,True,True,False,RIGHT,RIGHT
UP,RIGHT,180,True,True,True,False,False,UP,UP
UP,RIGHT,550,True,True,True,False,False,UP,UP
UP,EQUAL,70,True,True,True,False,False,UP,UP
DOWN,RIGHT,80,True,False,True,True,False,RIGHT,RIGHT
UP,EQUAL,120,True,True,True,False,False,UP,UP
DOWN,LEFT,260,False,True,True,True,False,LEFT,LEFT
DOWN,RIGHT,120,True,False,False,True,False,DOWN,RIGHT
DOWN,RIGHT,180,True,False,True,True,False,RIGHT,RIGHT
DOWN,RIGHT,90,True,False,True,True,False,RIGHT,RIGHT
DOWN,EQUAL,60,True,True,False,True,False,DOWN,DOWN
DOWN,LEFT,280,False,True,True,True,False,LEFT,LEFT
DOWN,LEFT,160,True,True,False,True,False,DOWN,DOWN
DOWN,RIGHT,220,True,True,True,False,False,UP,UP
DOWN,RIGHT,120,True,True,False,True,False,DOWN,DOWN
UP,RIGHT,60,False,True,True,True,False,LEFT,LEFT
DOWN,RIGHT,80,True,True,False,True,False,DOWN,DOWN
UP,LEFT,340,False,True,True,True,False,LEFT,LEFT
DOWN,LEFT,220,True,True,False,True,False,DOWN,DOWN
DOWN,RIGHT,270,True,False,True,True,False,RIGHT,RIGHT
UP,RIGHT,260,True,True,True,False,False,UP,UP
DOWN,LEFT,450,False,True,True,True,False,LEFT,LEFT
UP,RIGHT,60,False,True,True,True,False,LEFT,LEFT
UP,LEFT,190,True,True,True,False,False,UP,UP
UP,RIGHT,470,True,True,True,False,False,UP,UP
UP,RIGHT,340,True,True,True,False,False,UP,UP
DOWN,LEFT,360,False,True,True,True,False,LEFT,LEFT
DOWN,LEFT,250,True,True,False,True,False,DOWN,DOWN
UP,LEFT,580,True,False,True,True,False,RIGHT,UP
DOWN,LEFT,50,True,True,False,True,False,DOWN,DOWN
UP,RIGHT,200,True,True,True,False,False,UP,UP
DOWN,RIGHT,160,False,True,True,True,False,LEFT,LEFT
DOWN,RIGHT,210,True,True,False,True,True,DOWN,RIGHT
UP,RIGHT,190,True,False,True,True,False,RIGHT,UP
DOWN,RIGHT,210,True,True,True,False,False,UP,UP
UP,LEFT,330,True,True,True,False,False,UP,UP
UP,LEFT,310,True,True,True,False,False,UP,UP
DOWN,RIGHT,220,True,False,True,True,False,RIGHT,RIGHT
EQUAL,EQUAL,390,True,True,True,False,False,UP,RIGHT
DOWN,RIGHT,50,True,False,True,True,True,RIGHT,RIGHT
UP,LEFT,530,True,False,False,True,False,RIGHT,RIGHT
DOWN,LEFT,290,True,True,False,True,False,DOWN,DOWN
DOWN,LEFT,370,True,True,False,True,False,DOWN,DOWN
DOWN,RIGHT,20,False,True,False,True,False,LEFT,DOWN
UP,RIGHT,20,True,True,False,True,False,DOWN,RIGHT
DOWN,RIGHT,190,True,True,False,True,True,DOWN,DOWN
DOWN,RIGHT,200,True,False,True,True,False,RIGHT,RIGHT
UP,LEFT,140,True,True,True,False,False,UP,UP
DOWN,RIGHT,130,True,False,True,True,False,RIGHT,RIGHT
UP,RIGHT,440,True,False,True,True,False,RIGHT,RIGHT
EQUAL,RIGHT,80,True,False,True,True,False,RIGHT,RIGHT
UP,RIGHT,300,True,True,False,True,False,DOWN,DOWN
DOWN,LEFT,540,True,True,False,True,False,DOWN,DOWN
UP,EQUAL,30,False,True,True,False,True,UP,UP
DOWN,RIGHT,40,True,False,True,True,False,RIGHT,RIGHT
UP,EQUAL,80,True,True,True,False,False,UP,UP
DOWN,LEFT,600,True,True,False,True,False,DOWN,DOWN
UP,RIGHT,130,True,False,True,True,False,RIGHT,RIGHT
UP,RIGHT,190,True,False,True,True,False,RIGHT,RIGHT
DOWN,LEFT,170,False,True,True,True,False,LEFT,LEFT
DOWN,LEFT,510,True,True,False,True,False,DOWN,DOWN
DOWN,LEFT,220,True,True,False,True,False,DOWN,DOWN
UP,LEFT,440,True,True,True,False,False,UP,UP
DOWN,LEFT,370,False,True,True,True,False,LEFT,LEFT
UP,RIGHT,400,True,True,True,False,False,UP,UP
UP,LEFT,390,True,True,True,False,False,UP,UP
DOWN,LEFT,260,True,True,False,True,False,DOWN,DOWN
DOWN,EQUAL,120,True,True,False,True,False,DOWN,DOWN
DOWN,LEFT,100,True,True,False,True,False,DOWN,LEFT
EQUAL,RIGHT,130,True,False,True,True,False,RIGHT,RIGHT
DOWN,LEFT,150,False,True,True,True,False,LEFT,LEFT
EQUAL,RIGHT,30,True,True,True,False,False,UP,UP
DOWN,RIGHT,520,True,False,True,True,False,RIGHT,RIGHT
UP,EQUAL,30,True,True,True,False,False,UP,UP
DOWN,EQUAL,60,True,True,False,True,False,DOWN,DOWN
UP,EQUAL,50,True,True,True,False,False,UP,UP
UP,RIGHT,80,True,False,True,True,False,RIGHT,RIGHT
UP,LEFT,260,True,True,True,False,False,UP,UP
UP,EQUAL,20,True,True,True,False,False,UP,UP
DOWN,RIGHT,180,True,False,True,True,False,RIGHT,RIGHT
DOWN,RIGHT,90,True,True,False,True,False,DOWN,DOWN
UP,EQUAL,70,False,True,True,True,False,LEFT,UP
DOWN,EQUAL,350,True,True,False,True,False,DOWN,DOWN
DOWN,EQUAL,200,True,True,False,True,False,DOWN,DOWN
DOWN,LEFT,290,True,True,False,True,False,DOWN,DOWN
EQUAL,EQUAL,80,False,True,True,False,True,UP,UP
UP,EQUAL,80,True,True,True,False,False,UP,UP
DOWN,RIGHT,150,True,True,False,True,False,DOWN,DOWN
DOWN,RIGHT,230,True,False,False,True,False,RIGHT,RIGHT
DOWN,RIGHT,120,True,True,False,True,False,DOWN,DOWN
DOWN,LEFT,420,False,True,True,True,False,LEFT,LEFT
DOWN,RIGHT,570,True,False,True,True,False,RIGHT,RIGHT
DOWN,LEFT,70,True,True,False,True,False,DOWN,DOWN
DOWN,RIGHT,90,True,False,True,True,True,RIGHT,RIGHT
DOWN,EQUAL,110,True,True,False,True,False,DOWN,DOWN
DOWN,LEFT,180,True,True,False,True,False,DOWN,DOWN
DOWN,EQUAL,300,True,True,False,True,True,DOWN,DOWN
DOWN,RIGHT,40,True,False,True,True,False,RIGHT,RIGHT
DOWN,RIGHT,220,True,True,True,False,False,UP,UP
UP,RIGHT,600,True,False,True,False,False,UP,UP
DOWN,RIGHT,90,True,False,True,True,False,RIGHT,RIGHT
UP,RIGHT,440,True,True,True,False,False,UP,UP
DOWN,LEFT,220,True,True,False,True,False,DOWN,DOWN
UP,RIGHT,100,True,False,True,True,False,RIGHT,RIGHT
EQUAL,RIGHT,20,True,False,True,False,False,RIGHT,RIGHT
UP,LEFT,560,True,False,True,True,False,RIGHT,RIGHT
DOWN,RIGHT,70,True,False,False,True,False,RIGHT,RIGHT
DOWN,RIGHT,190,True,False,True,True,False,RIGHT,RIGHT
DOWN,EQUAL,110,True,True,False,True,False,DOWN,DOWN
UP,EQUAL,10,True,True,True,False,False,UP,UP
EQUAL,LEFT,90,False,True,True,True,False,LEFT,LEFT
UP,LEFT,310,True,True,True,False,False,UP,UP
UP,LEFT,230,True,True,True,False,False,UP,UP
EQUAL,EQUAL,430,True,False,True,True,False,RIGHT,RIGHT
UP,RIGHT,370,False,True,True,True,False,LEFT,LEFT
DOWN,RIGHT,180,True,False,False,True,False,RIGHT,RIGHT
UP,RIGHT,70,True,True,True,False,False,UP,UP
UP,RIGHT,190,True,False,True,True,False,RIGHT,RIGHT
DOWN,LEFT,120,False,True,True,True,False,LEFT,LEFT
DOWN,LEFT,60,True,True,False,True,False,DOWN,DOWN
DOWN,RIGHT,70,True,False,True,True,False,RIGHT,RIGHT
DOWN,EQUAL,50,True,True,False,True,False,DOWN,DOWN
UP,EQUAL,50,True,True,True,False,False,UP,UP
DOWN,LEFT,40,False,True,False,True,False,LEFT,LEFT
DOWN,LEFT,310,True,True,True,False,False,UP,RIGHT
DOWN,LEFT,30,True,True,False,True,False,DOWN,DOWN
DOWN,RIGHT,100,True,False,True,True,True,RIGHT,RIGHT
EQUAL,RIGHT,10,True,False,True,True,False,RIGHT,RIGHT
UP,LEFT,100,True,True,False,True,False,DOWN,DOWN
DOWN,LEFT,400,False,True,True,True,False,LEFT,LEFT
EQUAL,LEFT,330,True,False,True,True,True,RIGHT,DOWN
EQUAL,LEFT,190,False,True,True,True,False,LEFT,LEFT
UP,RIGHT,280,True,True,True,False,False,UP,UP
EQUAL,LEFT,30,False,True,True,True,False,LEFT,LEFT
UP,RIGHT,230,True,True,False,True,False,DOWN,DOWN
UP,LEFT,60,False,True,True,True,False,LEFT,LEFT
DOWN,LEFT,350,True,True,False,True,False,DOWN,DOWN
DOWN,LEFT,370,False,True,True,True,False,LEFT,LEFT
UP,RIGHT,390,True,False,True,True,False,RIGHT,RIGHT
EQUAL,RIGHT,50,True,False,False,True,False,RIGHT,RIGHT
DOWN,EQUAL,20,True,False,False,True,False,RIGHT,DOWN
DOWN,RIGHT,80,True,False,True,True,False,RIGHT,RIGHT
DOWN,RIGHT,230,True,False,True,True,False,RIGHT,RIGHT
UP,EQUAL,30,True,True,True,False,False,UP,UP
EQUAL,LEFT,80,True,True,False,True,False,DOWN,DOWN
DOWN,EQUAL,70,True,True,False,True,False,DOWN,DOWN
UP,EQUAL,180,True,True,True,False,True,UP,UP
EQUAL,RIGHT,60,True,True,True,False,False,UP,RIGHT
UP,RIGHT,230,False,True,True,True,False,LEFT,LEFT
DOWN,LEFT,200,True,True,False,True,False,DOWN,DOWN
UP,RIGHT,150,True,False,True,True,False,RIGHT,RIGHT
EQUAL,EQUAL,140,False,True,True,True,False,LEFT,LEFT
UP,RIGHT,430,True,True,True,False,False,UP,UP
UP,LEFT,30,True,True,False,True,False,DOWN,DOWN
UP,EQUAL,130,True,True,True,False,False,UP,UP
UP,RIGHT,70,True,False,True,True,False,RIGHT,RIGHT
DOWN,EQUAL,50,True,True,False,True,False,DOWN,DOWN
UP,LEFT,50,True,True,False,True,False,DOWN,DOWN
UP,LEFT,250,True,True,True,False,False,UP,UP
DOWN,LEFT,110,True,True,False,True,False,DOWN,DOWN
DOWN,RIGHT,290,True,True,False,True,False,DOWN,DOWN
DOWN,LEFT,100,True,True,False,True,False,DOWN,DOWN
DOWN,LEFT,550,True,False,True,True,False,RIGHT,DOWN
DOWN,RIGHT,250,True,False,True,True,False,RIGHT,RIGHT
UP,LEFT,90,False,True,True,True,False,LEFT,LEFT
DOWN,RIGHT,110,True,True,False,True,False,DOWN,DOWN
DOWN,LEFT,20,True,False,False,True,False,RIGHT,RIGHT
UP,RIGHT,70,True,True,True,False,False,UP,UP
DOWN,EQUAL,120,True,True,False,True,False,DOWN,DOWN
UP,LEFT,80,True,False,True,True,False,RIGHT,RIGHT
UP,LEFT,210,True,True,True,False,False,UP,UP
UP,RIGHT,410,True,False,True,True,False,RIGHT,RIGHT
UP,EQUAL,190,True,True,True,False,False,UP,UP
DOWN,RIGHT,120,True,True,False,True,False,DOWN,DOWN
UP,RIGHT,290,True,False,True,True,False,RIGHT,RIGHT
DOWN,LEFT,150,False,True,True,True,False,LEFT,LEFT
UP,LEFT,490,True,True,False,True,False,DOWN,RIGHT
UP,RIGHT,260,True,True,False,True,False,DOWN,RIGHT
DOWN,LEFT,90,False,True,True,False,True,UP,LEFT
EQUAL,LEFT,50,False,True,True,True,False,LEFT,LEFT
DOWN,RIGHT,70,True,True,False,True,False,DOWN,DOWN
EQUAL,LEFT,10,False,True,True,True,False,LEFT,LEFT
UP,LEFT,180,True,True,True,False,False,UP,UP
DOWN,LEFT,510,True,True,True,False,False,UP,UP
EQUAL,LEFT,30,False,True,True,True,False,LEFT,LEFT
DOWN,RIGHT,80,True,True,False,True,False,DOWN,DOWN
DOWN,RIGHT,240,True,True,True,False,False,UP,UP
UP,LEFT,280,True,True,True,False,False,UP,UP
DOWN,RIGHT,50,True,True,False,True,False,DOWN,DOWN
UP,RIGHT,70,True,True,True,False,False,UP,UP
UP,RIGHT,150,False,True,True,True,False,LEFT,LEFT
UP,RIGHT,260,True,False,True,True,False,RIGHT,RIGHT
DOWN,RIGHT,200,True,True,False,True,False,DOWN,DOWN
UP,LEFT,520,False,True,True,True,False,LEFT,LEFT
DOWN,RIGHT,280,True,False,True,True,False,RIGHT,RIGHT
DOWN,LEFT,500,True,True,True,False,False,UP,UP
EQUAL,LEFT,10,True,True,False,True,False,DOWN,LEFT
UP,RIGHT,320,True,False,True,False,False,RIGHT,RIGHT
UP,EQUAL,10,False,True,True,False,True,UP,UP
DOWN,RIGHT,90,True,True,False,True,False,DOWN,DOWN
DOWN,RIGHT,70,True,False,True,True,False,RIGHT,RIGHT
UP,RIGHT,280,True,False,True,False,False,RIGHT,RIGHT
UP,RIGHT,360,True,False,True,True,False,RIGHT,RIGHT
UP,RIGHT,140,False,True,True,True,False,LEFT,LEFT
DOWN,RIGHT,530,True,False,True,True,False,RIGHT,RIGHT
UP,LEFT,550,True,False,True,True,False,RIGHT,RIGHT
DOWN,RIGHT,240,True,False,True,True,False,RIGHT,RIGHT
UP,RIGHT,410,True,True,True,False,False,UP,UP
DOWN,LEFT,40,False,True,True,True,False,LEFT,LEFT
EQUAL,LEFT,50,False,True,True,True,False,LEFT,LEFT
DOWN,EQUAL,170,True,True,False,True,False,DOWN,DOWN
DOWN,LEFT,210,False,True,True,True,False,LEFT,LEFT
EQUAL,EQUAL,650,True,False,True,True,False,RIGHT,RIGHT
DOWN,LEFT,170,False,True,True,True,False,LEFT,LEFT
DOWN,RIGHT,70,True,False,True,True,True,RIGHT,RIGHT
UP,EQUAL,80,True,True,True,False,False,UP,UP
UP,EQUAL,10,True,True,True,False,False,UP,UP
DOWN,RIGHT,60,True,False,True,True,False,RIGHT,RIGHT
UP,LEFT,520,True,False,False,True,False,RIGHT,RIGHT
UP,LEFT,260,True,True,True,False,False,UP,UP
UP,EQUAL,120,True,True,True,False,False,UP,UP
DOWN,LEFT,50,True,True,False,True,False,DOWN,DOWN
DOWN,LEFT,530,True,False,True,True,False,RIGHT,RIGHT
UP,LEFT,200,True,True,True,False,False,UP,UP
DOWN,LEFT,390,False,True,True,True,False,LEFT,LEFT
DOWN,RIGHT,100,True,True,True,False,True,UP,RIGHT
DOWN,RIGHT,170,True,False,True,True,False,RIGHT,RIGHT
UP,RIGHT,210,True,True,True,False,False,UP,UP
UP,RIGHT,80,False,True,True,True,False,LEFT,LEFT
UP,EQUAL,20,True,True,True,False,False,UP,UP
DOWN,LEFT,520,True,False,True,True,False,RIGHT,RIGHT
DOWN,RIGHT,220,True,False,True,True,False,RIGHT,RIGHT
DOWN,RIGHT,150,False,True,True,True,False,LEFT,UP
UP,RIGHT,130,False,True,True,True,False,LEFT,LEFT
DOWN,RIGHT,240,True,True,True,False,False,UP,UP
UP,RIGHT,110,True,False,True,True,False,RIGHT,RIGHT
EQUAL,RIGHT,30,True,True,False,True,False,DOWN,DOWN
DOWN,LEFT,380,False,True,True,True,False,LEFT,LEFT
UP,RIGHT,170,False,True,True,True,False,LEFT,UP
DOWN,RIGHT,150,True,False,True,True,False,RIGHT,RIGHT
EQUAL,LEFT,270,False,True,True,True,False,LEFT,LEFT
UP,EQUAL,30,True,True,True,False,False,UP,UP
UP,LEFT,330,True,True,True,False,False,UP,UP
UP,RIGHT,220,True,False,True,True,False,RIGHT,RIGHT
UP,EQUAL,290,True,False,True,True,True,RIGHT,RIGHT
EQUAL,LEFT,170,False,True,True,True,False,LEFT,LEFT
UP,EQUAL,100,True,True,True,False,False,UP,UP
UP,RIGHT,100,False,True,True,True,False,LEFT,LEFT
UP,LEFT,550,False,True,True,True,False,LEFT,LEFT
UP,EQUAL,170,True,True,True,False,False,UP,UP
DOWN,LEFT,90,True,True,False,True,False,DOWN,DOWN
UP,RIGHT,230,True,False,True,True,False,RIGHT,RIGHT
DOWN,LEFT,120,True,True,False,True,False,DOWN,DOWN
EQUAL,EQUAL,180,True,False,True,True,False,RIGHT,RIGHT
DOWN,LEFT,310,True,True,False,True,False,DOWN,DOWN
UP,RIGHT,220,True,False,True,True,False,RIGHT,RIGHT
UP,RIGHT,320,True,False,True,True,True,RIGHT,RIGHT
DOWN,RIGHT,170,True,True,True,False,False,UP,UP
EQUAL,LEFT,90,False,True,True,True,False,LEFT,LEFT
UP,RIGHT,450,True,False,True,True,False,RIGHT,RIGHT
DOWN,EQUAL,150,True,True,False,True,False,DOWN,DOWN
UP,EQUAL,70,True,True,True,False,False,UP,UP
DOWN,EQUAL,250,True,True,False,True,False,DOWN,DOWN
DOWN,LEFT,30,True,False,False,True,False,RIGHT,DOWN
EQUAL,LEFT,180,False,True,True,True,False,LEFT,LEFT
DOWN,RIGHT,50,True,True,False,True,False,DOWN,DOWN
UP,EQUAL,50,True,True,True,False,False,UP,UP
DOWN,LEFT,100,False,True,True,True,False,LEFT,LEFT
DOWN,RIGHT,200,False,True,True,True,False,LEFT,LEFT
UP,RIGHT,190,True,True,True,False,False,UP,UP
DOWN,RIGHT,250,True,True,True,False,False,UP,RIGHT
DOWN,RIGHT,40,True,False,True,True,False,RIGHT,RIGHT
UP,EQUAL,30,True,True,True,False,False,UP,UP
DOWN,RIGHT,40,True,True,False,True,False,DOWN,DOWN
UP,RIGHT,150,True,False,True,True,False,RIGHT,RIGHT
UP,LEFT,330,True,True,False,True,False,DOWN,LEFT
UP,RIGHT,40,True,True,False,True,False,DOWN,RIGHT
DOWN,LEFT,290,True,True,True,False,False,UP,UP
UP,RIGHT,570,True,True,True,False,False,UP,UP
DOWN,RIGHT,100,True,False,True,True,False,RIGHT,RIGHT
DOWN,RIGHT,380,True,False,True,True,False,RIGHT,RIGHT
UP,RIGHT,160,False,True,True,True,False,LEFT,LEFT
UP,LEFT,500,True,False,True,True,False,RIGHT,UP
DOWN,RIGHT,150,True,False,True,True,False,RIGHT,RIGHT
DOWN,LEFT,150,True,True,False,True,False,DOWN,DOWN
UP,EQUAL,200,True,True,True,False,False,UP,UP
DOWN,LEFT,520,True,True,True,False,False,UP,LEFT
UP,LEFT,320,True,True,True,False,False,UP,UP
UP,RIGHT,200,True,False,True,True,False,RIGHT,RIGHT
DOWN,LEFT,210,True,True,False,True,False,DOWN,DOWN
UP,EQUAL,90,True,True,True,False,True,UP,UP
UP,RIGHT,360,True,False,True,True,False,RIGHT,RIGHT
UP,EQUAL,50,True,False,True,True,False,RIGHT,UP
UP,RIGHT,210,True,False,True,True,False,RIGHT,RIGHT
DOWN,LEFT,110,True,False,True,True,False,RIGHT,RIGHT
UP,LEFT,100,True,False,True,True,False,RIGHT,RIGHT
DOWN,RIGHT,170,True,True,False,True,False,DOWN,DOWN
DOWN,LEFT,260,False,True,True,True,False,LEFT,LEFT
DOWN,LEFT,90,False,True,True,True,False,LEFT,LEFT
DOWN,EQUAL,210,True,True,False,True,False,DOWN,DOWN
DOWN,RIGHT,200,False,True,True,True,False,LEFT,LEFT
EQUAL,LEFT,240,False,True,True,True,False,LEFT,LEFT
DOWN,LEFT,180,False,True,True,True,False,LEFT,LEFT
UP,LEFT,220,True,True,False,True,True,DOWN,LEFT
DOWN,RIGHT,160,True,True,True,False,False,UP,UP
EQUAL,LEFT,20,False,True,True,True,False,LEFT,LEFT
UP,RIGHT,280,True,False,True,True,False,RIGHT,RIGHT
DOWN,LEFT,480,False,True,True,True,False,LEFT,LEFT
DOWN,LEFT,360,False,True,True,True,False,LEFT,LEFT
DOWN,RIGHT,160,True,False,True,True,True,RIGHT,DOWN
DOWN,RIGHT,80,True,True,False,True,False,DOWN,RIGHT
DOWN,RIGHT,140,True,True,False,True,False,DOWN,DOWN
UP,RIGHT,170,True,True,True,False,False,UP,UP
DOWN,RIGHT,420,True,False,True,True,False,RIGHT,RIGHT
DOWN,RIGHT,30,True,False,False,True,False,RIGHT,RIGHT
DOWN,RIGHT,190,True,False,True,True,False,RIGHT,RIGHT
DOWN,EQUAL,40,True,False,True,True,False,RIGHT,RIGHT
UP,LEFT,80,True,True,True,False,False,UP,UP
UP,EQUAL,10,True,True,True,False,False,UP,UP
DOWN,RIGHT,210,True,False,False,True,False,RIGHT,RIGHT
UP,EQUAL,180,True,True,True,False,False,UP,UP
EQUAL,RIGHT,40,True,False,True,True,False,RIGHT,RIGHT
UP,LEFT,210,True,True,False,True,False,DOWN,DOWN
EQUAL,EQUAL,160,True,True,False,True,False,DOWN,DOWN
UP,RIGHT,500,True,False,True,False,False,RIGHT,RIGHT
DOWN,LEFT,250,True,True,True,False,False,UP,UP
EQUAL,LEFT,30,False,True,True,True,False,LEFT,LEFT
DOWN,LEFT,510,False,True,True,True,False,LEFT,LEFT
UP,RIGHT,190,True,False,True,True,False,RIGHT,RIGHT
UP,RIGHT,360,True,True,True,False,False,UP,RIGHT
EQUAL,LEFT,70,False,True,True,True,False,LEFT,LEFT
UP,RIGHT,140,True,False,True,True,True,RIGHT,RIGHT
UP,RIGHT,240,True,True,False,True,False,DOWN,DOWN
DOWN,LEFT,140,True,False,True,True,False,RIGHT,RIGHT
DOWN,LEFT,390,True,True,False,True,False,DOWN,DOWN
UP,RIGHT,160,True,False,True,True,False,RIGHT,RIGHT
DOWN,RIGHT,160,False,True,True,True,False,LEFT,LEFT
EQUAL,EQUAL,510,True,False,True,True,False,RIGHT,RIGHT
DOWN,RIGHT,170,True,False,True,True,False,RIGHT,RIGHT
UP,RIGHT,80,True,True,True,False,False,UP,UP
DOWN,RIGHT,180,True,True,False,True,False,DOWN,DOWN
UP,LEFT,400,False,True,True,True,False,LEFT,LEFT
UP,EQUAL,10,False,True,True,True,False,LEFT,UP
DOWN,LEFT,180,False,True,True,True,False,LEFT,LEFT
UP,LEFT,150,True,True,True,False,False,UP,UP
UP,EQUAL,60,True,False,True,False,False,UP,UP
DOWN,LEFT,200,False,True,True,True,False,LEFT,LEFT
DOWN,EQUAL,240,True,True,False,True,False,DOWN,DOWN
UP,RIGHT,170,True,False,True,True,True,RIGHT,RIGHT
DOWN,LEFT,190,False,True,True,True,False,LEFT,LEFT
DOWN,EQUAL,40,True,False,True,True,False,RIGHT,DOWN
UP,LEFT,110,False,True,True,True,False,LEFT,LEFT
UP,RIGHT,540,True,True,True,False,False,UP,UP
DOWN,LEFT,360,True,True,False,True,False,DOWN,DOWN
UP,RIGHT,270,False,True,True,True,False,LEFT,UP
DOWN,RIGHT,40,True,False,False,True,False,RIGHT,RIGHT
UP,RIGHT,40,True,True,False,True,False,DOWN,DOWN
DOWN,LEFT,190,False,True,True,True,False,LEFT,LEFT
EQUAL,EQUAL,360,False,True,True,True,False,LEFT,LEFT
DOWN,RIGHT,50,True,False,True,True,False,RIGHT,RIGHT
EQUAL,LEFT,30,False,True,True,False,True,LEFT,LEFT
DOWN,RIGHT,200,True,True,False,True,True,DOWN,DOWN
DOWN,LEFT,250,False,True,True,True,False,LEFT,LEFT
UP,RIGHT,80,True,False,True,True,False,RIGHT,RIGHT
DOWN,LEFT,180,False,True,True,True,False,LEFT,LEFT
UP,LEFT,470,True,True,False,True,False,DOWN,DOWN
DOWN,LEFT,490,False,True,True,True,False,LEFT,LEFT
UP,LEFT,290,False,True,True,True,False,LEFT,LEFT
DOWN,LEFT,30,False,True,True,True,False,LEFT,LEFT
DOWN,RIGHT,40,True,True,True,False,False,UP,UP
DOWN,RIGHT,50,True,True,True,False,False,UP,UP
DOWN,EQUAL,70,True,False,True,True,True,RIGHT,DOWN
DOWN,RIGHT,30,True,False,True,True,False,RIGHT,DOWN
DOWN,EQUAL,70,False,True,True,True,True,LEFT,LEFT
EQUAL,LEFT,20,False,True,True,True,False,LEFT,LEFT
DOWN,RIGHT,120,True,True,False,True,False,DOWN,DOWN
DOWN,EQUAL,90,True,True,False,True,False,DOWN,DOWN
DOWN,LEFT,410,False,True,True,True,False,LEFT,LEFT
UP,EQUAL,40,True,True,True,False,False,UP,UP
DOWN,LEFT,230,True,True,False,True,False,DOWN,DOWN
DOWN,LEFT,470,False,True,True,True,False,LEFT,LEFT
UP,EQUAL,150,True,True,True,False,False,UP,UP
UP,EQUAL,90,False,True,True,True,False,LEFT,UP
DOWN,LEFT,250,True,True,False,True,False,DOWN,DOWN
UP,RIGHT,380,False,True,True,True,False,LEFT,LEFT
DOWN,RIGHT,70,True,True,False,True,False,DOWN,DOWN
DOWN,LEFT,270,True,True,False,True,False,DOWN,DOWN
UP,LEFT,180,True,True,True,False,False,UP,UP
DOWN,RIGHT,180,True,False,False,True,True,RIGHT,RIGHT
UP,LEFT,120,True,True,True,False,False,UP,UP
EQUAL,LEFT,60,False,True,True,True,False,LEFT,LEFT
UP,RIGHT,90,False,True,True,True,False,LEFT,LEFT
DOWN,LEFT,250,False,True,True,True,False,LEFT,LEFT
DOWN,LEFT,80,False,True,True,True,False,LEFT,LEFT
UP,EQUAL,20,False,True,True,False,False,UP,UP
DOWN,RIGHT,130,True,False,True,True,False,RIGHT,DOWN
DOWN,LEFT,200,False,True,True,True,False,LEFT,LEFT
DOWN,RIGHT,300,True,False,True,True,False,RIGHT,RIGHT
UP,LEFT,350,False,True,True,True,False,LEFT,LEFT
UP,RIGHT,340,True,False,True,False,False,RIGHT,RIGHT
UP,LEFT,200,False,True,True,True,False,LEFT,LEFT
DOWN,RIGHT,550,True,False,True,True,False,RIGHT,RIGHT
UP,EQUAL,40,True,True,True,False,False,UP,UP
DOWN,RIGHT,60,True,False,True,True,False,RIGHT,RIGHT
EQUAL,LEFT,140,False,True,True,True,False,LEFT,LEFT
UP,LEFT,50,True,True,True,False,False,UP,UP
EQUAL,LEFT,20,True,True,False,True,False,DOWN,DOWN
UP,RIGHT,180,True,True,True,False,False,UP,UP
DOWN,RIGHT,90,True,True,False,True,False,DOWN,DOWN
UP,EQUAL,190,True,True,True,False,False,UP,UP
DOWN,LEFT,340,False,True,True,True,False,LEFT,LEFT
DOWN,LEFT,420,False,True,True,True,False,LEFT,LEFT
UP,RIGHT,520,True,True,True,False,False,UP,UP
DOWN,RIGHT,200,True,True,False,True,False,DOWN,DOWN
EQUAL,EQUAL,250,False,True,True,False,False,UP,UP
EQUAL,EQUAL,220,False,True,True,True,False,LEFT,LEFT
DOWN,LEFT,200,False,True,True,True,False,LEFT,LEFT
UP,RIGHT,380,True,False,True,True,False,RIGHT,RIGHT
UP,RIGHT,270,True,False,True,True,False,RIGHT,RIGHT
DOWN,LEFT,440,False,True,True,True,False,LEFT,LEFT
UP,RIGHT,30,False,True,True,True,False,LEFT,LEFT
DOWN,RIGHT,170,False,True,True,True,False,LEFT,LEFT
UP,RIGHT,270,True,False,True,False,False,RIGHT,RIGHT
DOWN,EQUAL,50,True,False,True,True,False,RIGHT,RIGHT
EQUAL,RIGHT,20,True,False,True,True,False,RIGHT,RIGHT
UP,RIGHT,170,True,True,True,False,False,UP,UP
DOWN,LEFT,120,True,True,True,False,False,UP,UP
UP,RIGHT,250,True,False,True,True,False,RIGHT,RIGHT
UP,RIGHT,50,False,True,True,True,False,LEFT,LEFT
DOWN,LEFT,390,True,True,True,False,False,UP,UP
DOWN,RIGHT,250,True,False,True,True,False,RIGHT,RIGHT
DOWN,LEFT,30,False,True,True,True,False,LEFT,LEFT
UP,RIGHT,370,True,False,True,False,False,RIGHT,RIGHT
UP,LEFT,100,False,True,True,True,False,LEFT,LEFT
EQUAL,LEFT,50,False,True,True,True,False,LEFT,LEFT
DOWN,LEFT,380,False,True,True,True,False,LEFT,LEFT
UP,RIGHT,340,True,False,True,True,False,RIGHT,RIGHT
UP,RIGHT,50,True,True,False,True,False,DOWN,DOWN
DOWN,EQUAL,180,True,True,False,True,False,DOWN,DOWN
DOWN,RIGHT,160,True,True,False,True,False,DOWN,DOWN
UP,EQUAL,70,True,False,True,True,False,RIGHT,UP
DOWN,RIGHT,180,True,True,True,False,False,UP,UP
DOWN,RIGHT,200,True,False,True,True,False,RIGHT,RIGHT
UP,LEFT,70,False,True,True,True,False,LEFT,LEFT
DOWN,RIGHT,30,True,False,False,True,False,RIGHT,RIGHT
DOWN,EQUAL,80,True,True,False,True,False,DOWN,DOWN
EQUAL,RIGHT,70,True,False,True,True,False,RIGHT,RIGHT
UP,RIGHT,240,True,False,True,True,False,RIGHT,RIGHT
DOWN,LEFT,270,True,True,False,True,False,DOWN,DOWN
DOWN,LEFT,330,False,True,True,True,False,LEFT,LEFT
DOWN,LEFT,570,True,True,False,True,False,DOWN,DOWN
DOWN,RIGHT,250,True,True,False,True,False,DOWN,DOWN
DOWN,LEFT,20,True,True,False,True,False,DOWN,DOWN
UP,RIGHT,370,False,True,True,True,False,LEFT,LEFT
DOWN,EQUAL,60,True,True,False,True,False,DOWN,DOWN
UP,LEFT,180,False,True,True,True,False,LEFT,LEFT
UP,LEFT,140,False,True,True,True,False,LEFT,LEFT
DOWN,EQUAL,20,True,True,False,True,False,DOWN,DOWN
UP,RIGHT,160,True,False,True,True,False,RIGHT,RIGHT
UP,LEFT,80,True,True,False,True,False,DOWN,LEFT
UP,EQUAL,70,True,True,True,False,False,UP,UP
DOWN,LEFT,180,True,True,False,True,False,DOWN,DOWN
UP,RIGHT,90,True,False,True,True,False,RIGHT,RIGHT
DOWN,LEFT,100,False,True,True,True,False,LEFT,LEFT
UP,RIGHT,170,True,False,True,True,False,RIGHT,RIGHT
DOWN,RIGHT,330,True,False,True,True,False,RIGHT,RIGHT
UP,LEFT,60,True,True,False,True,False,DOWN,DOWN
UP,RIGHT,370,True,True,True,False,False,UP,UP
UP,EQUAL,20,True,True,True,False,False,UP,UP
EQUAL,RIGHT,150,True,False,True,True,False,RIGHT,RIGHT
DOWN,RIGHT,80,True,False,True,True,True,RIGHT,RIGHT
UP,LEFT,20,True,True,False,True,False,DOWN,LEFT
DOWN,LEFT,230,False,True,True,True,False,LEFT,LEFT
UP,LEFT,20,True,False,True,True,False,RIGHT,RIGHT
DOWN,LEFT,230,True,True,False,True,False,DOWN,DOWN
DOWN,LEFT,300,True,True,False,True,False,DOWN,DOWN
DOWN,LEFT,340,True,True,False,True,False,DOWN,DOWN
UP,LEFT,200,True,True,True,False,False,UP,UP
DOWN,RIGHT,190,True,True,False,True,False,DOWN,DOWN
UP,RIGHT,290,True,True,True,False,False,UP,UP
UP,RIGHT,250,True,False,True,True,False,RIGHT,RIGHT
UP,LEFT,260,False,True,True,True,False,LEFT,LEFT
DOWN,RIGHT,60,True,True,False,True,False,DOWN,DOWN
UP,EQUAL,110,True,True,True,False,False,UP,UP
DOWN,LEFT,300,True,True,False,True,False,DOWN,DOWN
UP,LEFT,130,False,True,True,True,False,LEFT,LEFT
EQUAL,LEFT,250,False,True,True,True,False,LEFT,LEFT
UP,LEFT,130,True,True,True,False,False,UP,UP
DOWN,LEFT,300,True,True,False,True,False,DOWN,DOWN
DOWN,LEFT,60,True,False,True,True,False,RIGHT,DOWN
UP,RIGHT,160,True,False,True,True,True,RIGHT,RIGHT
DOWN,RIGHT,60,False,True,True,True,False,LEFT,LEFT
UP,RIGHT,40,False,True,True,True,False,LEFT,LEFT
DOWN,RIGHT,510,True,False,True,True,False,RIGHT,RIGHT
DOWN,RIGHT,60,True,True,False,True,False,DOWN,RIGHT
UP,RIGHT,410,False,True,True,True,False,LEFT,UP
UP,LEFT,350,True,True,True,False,False,UP,UP
DOWN,LEFT,480,False,True,True,True,False,LEFT,LEFT
UP,LEFT,390,True,True,True,False,False,UP,UP
EQUAL,EQUAL,230,True,True,False,True,False,DOWN,DOWN
EQUAL,LEFT,210,False,True,True,True,False,LEFT,LEFT
DOWN,EQUAL,40,True,True,False,True,False,DOWN,DOWN
EQUAL,LEFT,170,False,True,True,True,False,LEFT,LEFT
DOWN,LEFT,170,True,False,True,True,False,RIGHT,DOWN
DOWN,RIGHT,170,True,True,True,False,True,UP,RIGHT
DOWN,EQUAL,130,True,False,False,True,True,RIGHT,DOWN
UP,LEFT,410,False,True,True,True,False,LEFT,LEFT
DOWN,LEFT,390,False,True,True,True,False,LEFT,LEFT
DOWN,LEFT,310,False,True,True,True,False,LEFT,LEFT
DOWN,RIGHT,160,True,True,False,True,False,DOWN,DOWN
EQUAL,LEFT,20,False,True,True,False,True,LEFT,LEFT
DOWN,RIGHT,50,True,True,False,True,False,DOWN,DOWN
UP,EQUAL,10,True,True,True,False,False,UP,UP
DOWN,RIGHT,440,True,True,False,True,False,DOWN,DOWN
EQUAL,LEFT,390,True,True,True,False,False,UP,UP
DOWN,RIGHT,130,True,False,True,True,False,RIGHT,DOWN
DOWN,EQUAL,220,True,True,False,True,False,DOWN,DOWN
EQUAL,EQUAL,620,False,True,True,True,False,LEFT,LEFT
UP,LEFT,510,False,True,True,True,False,LEFT,LEFT
DOWN,EQUAL,10,True,True,False,True,False,DOWN,DOWN
EQUAL,EQUAL,350,False,True,True,True,False,LEFT,LEFT
UP,RIGHT,130,True,False,True,True,False,RIGHT,RIGHT
DOWN,RIGHT,80,True,False,True,True,False,RIGHT,RIGHT
UP,RIGHT,120,True,True,True,False,False,UP,UP
DOWN,RIGHT,190,True,False,True,True,False,RIGHT,RIGHT
UP,EQUAL,10,False,True,True,False,False,UP,UP
DOWN,RIGHT,190,True,False,False,True,True,RIGHT,RIGHT
UP,EQUAL,20,True,True,True,False,False,UP,UP
DOWN,RIGHT,190,True,True,False,True,False,DOWN,DOWN
UP,RIGHT,520,True,True,True,False,False,UP,UP
DOWN,LEFT,20,True,True,False,True,False,DOWN,DOWN
EQUAL,LEFT,60,True,True,True,False,False,UP,UP
EQUAL,RIGHT,60,True,False,True,True,False,RIGHT,RIGHT
UP,EQUAL,40,True,True,True,False,False,UP,UP
DOWN,LEFT,200,True,True,True,False,False,UP,UP
UP,RIGHT,310,True,False,True,True,False,RIGHT,RIGHT
UP,LEFT,350,True,True,True,False,False,UP,UP
DOWN,LEFT,500,True,True,False,True,False,DOWN,DOWN
UP,RIGHT,420,True,True,True,False,False,UP,UP
DOWN,RIGHT,190,True,False,True,True,False,RIGHT,RIGHT
EQUAL,LEFT,190,False,True,True,True,False,LEFT,LEFT
DOWN,RIGHT,370,True,False,True,True,False,RIGHT,RIGHT
DOWN,EQUAL,30,True,True,False,True,False,DOWN,DOWN
UP,RIGHT,350,True,False,True,False,False,RIGHT,RIGHT
UP,LEFT,540,True,False,False,True,False,RIGHT,RIGHT
DOWN,LEFT,350,False,True,True,True,False,LEFT,LEFT
DOWN,EQUAL,60,True,True,False,True,False,DOWN,DOWN
DOWN,LEFT,440,True,True,False,True,False,DOWN,DOWN
UP,RIGHT,280,True,True,True,False,False,UP,UP
EQUAL,LEFT,150,False,True,True,True,False,LEFT,LEFT
EQUAL,EQUAL,150,False,True,True,True,False,LEFT,LEFT
DOWN,LEFT,180,True,True,False,True,False,DOWN,DOWN
DOWN,EQUAL,10,True,True,False,True,False,DOWN,DOWN
UP,RIGHT,310,True,True,False,True,False,DOWN,RIGHT
UP,LEFT,340,True,True,True,False,False,UP,UP
UP,RIGHT,310,True,True,True,False,False,UP,UP
DOWN,RIGHT,220,True,False,True,True,False,RIGHT,RIGHT
DOWN,EQUAL,10,True,True,False,True,False,DOWN,DOWN
DOWN,RIGHT,170,True,False,False,True,True,RIGHT,RIGHT
EQUAL,EQUAL,200,False,True,True,True,False,LEFT,LEFT
UP,RIGHT,300,True,False,True,True,True,RIGHT,RIGHT
EQUAL,RIGHT,10,True,True,False,True,False,DOWN,DOWN
EQUAL,LEFT,320,True,True,False,True,False,DOWN,LEFT
DOWN,EQUAL,290,True,True,False,True,True,DOWN,DOWN
DOWN,RIGHT,40,True,True,False,True,False,DOWN,DOWN
DOWN,RIGHT,340,True,False,True,True,False,RIGHT,RIGHT
UP,LEFT,380,True,True,False,True,True,DOWN,DOWN
EQUAL,LEFT,70,False,True,True,True,False,LEFT,LEFT
DOWN,RIGHT,230,True,False,True,True,False,RIGHT,RIGHT
UP,EQUAL,100,True,True,True,False,False,UP,UP
DOWN,RIGHT,250,True,False,False,True,False,RIGHT,RIGHT
UP,LEFT,20,True,True,True,False,False,UP,UP
DOWN,EQUAL,50,True,True,False,True,False,DOWN,DOWN
DOWN,EQUAL,80,False,True,True,True,False,LEFT,LEFT
DOWN,LEFT,130,False,True,True,True,False,LEFT,LEFT
DOWN,RIGHT,20,False,True,True,True,False,LEFT,DOWN
DOWN,RIGHT,110,True,False,True,True,True,RIGHT,RIGHT
DOWN,RIGHT,170,True,True,False,True,False,DOWN,DOWN
UP,RIGHT,390,True,False,True,False,False,RIGHT,RIGHT
DOWN,LEFT,190,True,True,False,True,False,DOWN,DOWN
UP,RIGHT,460,True,False,True,False,False,RIGHT,RIGHT
DOWN,LEFT,320,False,True,True,True,False,LEFT,LEFT
UP,RIGHT,140,False,True,True,True,False,LEFT,LEFT
DOWN,RIGHT,100,True,True,False,True,False,DOWN,DOWN
DOWN,EQUAL,10,True,True,False,True,False,DOWN,DOWN
DOWN,LEFT,80,False,True,True,True,False,LEFT,LEFT
DOWN,EQUAL,130,True,True,False,True,False,DOWN,DOWN
DOWN,RIGHT,90,True,False,True,True,False,RIGHT,RIGHT
DOWN,LEFT,270,False,True,True,True,False,LEFT,LEFT
EQUAL,EQUAL,180,True,True,True,False,False,UP,UP
DOWN,RIGHT,140,True,False,True,True,False,RIGHT,RIGHT
DOWN,RIGHT,310,True,True,False,False,False,UP,RIGHT
UP,RIGHT,360,True,False,True,False,False,RIGHT,RIGHT
DOWN,EQUAL,20,True,False,True,True,False,RIGHT,DOWN
DOWN,LEFT,340,True,True,False,True,False,DOWN,DOWN
DOWN,RIGHT,220,True,True,True,False,False,UP,UP
EQUAL,RIGHT,10,True,False,True,True,False,RIGHT,RIGHT
UP,EQUAL,90,True,False,True,True,False,RIGHT,UP
DOWN,RIGHT,300,False,True,True,True,False,LEFT,LEFT
UP,EQUAL,90,True,True,True,False,False,UP,UP
DOWN,LEFT,350,False,True,True,True,False,LEFT,LEFT
EQUAL,RIGHT,20,True,True,False,True,False,DOWN,RIGHT
DOWN,RIGHT,220,True,True,False,True,False,DOWN,DOWN
UP,EQUAL,10,True,True,True,False,False,UP,UP
DOWN,RIGHT,150,True,False,True,True,False,RIGHT,RIGHT
DOWN,RIGHT,60,True,True,False,True,False,DOWN,DOWN
UP,LEFT,200,True,True,True,False,False,UP,UP
DOWN,RIGHT,250,True,False,True,True,False,RIGHT,RIGHT
DOWN,LEFT,130,False,True,True,True,False,LEFT,LEFT
UP,EQUAL,40,True,True,True,False,False,UP,UP
DOWN,RIGHT,310,False,True,True,True,False,LEFT,DOWN
DOWN,LEFT,80,False,True,True,True,False,LEFT,LEFT
UP,EQUAL,70,True,True,True,False,False,UP,UP
DOWN,LEFT,160,False,True,True,True,False,LEFT,LEFT
DOWN,EQUAL,150,False,True,True,True,False,LEFT,DOWN
UP,RIGHT,20,False,True,True,True,False,LEFT,LEFT
UP,LEFT,40,True,True,True,False,False,UP,UP
DOWN,RIGHT,70,False,True,True,True,False,LEFT,LEFT
UP,RIGHT,450,True,False,True,True,False,RIGHT,RIGHT
DOWN,RIGHT,200,True,False,True,True,False,RIGHT,RIGHT
