@relation 'snake_game-weka.filters.unsupervised.instance.Randomize-S42-weka.filters.unsupervised.instance.RemovePercentage-P20.0-weka.filters.unsupervised.attribute.Remove-R3-4,10,16-17'

@attribute snake_pos_x numeric
@attribute snake_pos_y numeric
@attribute food_pos_x numeric
@attribute food_pos_y numeric
@attribute food_side_y {UP,DOWN,EQUAL}
@attribute food_side_x {RIGHT,LEFT,EQUAL}
@attribute manhattan_distance numeric
@attribute large_snake numeric
@attribute right_safe {True,False}
@attribute left_safe {True,False}
@attribute up_safe {True,False}
@attribute down_safe {True,False}
@attribute cycle {True,False}
@attribute body_indirection {True,False}
@attribute previous_direction {UP,DOWN,LEFT,RIGHT}
@attribute direction {UP,DOWN,LEFT,RIGHT}

@data
320,90,120,50,UP,LEFT,240,27,True,True,True,False,True,False,UP,UP
160,220,390,80,UP,RIGHT,370,55,True,True,True,False,False,False,UP,UP
270,430,270,380,UP,EQUAL,50,35,True,True,True,False,True,False,UP,UP
250,410,310,120,UP,RIGHT,350,48,True,False,True,True,True,True,RIGHT,RIGHT
50,160,400,20,UP,RIGHT,490,8,True,True,True,False,True,False,UP,UP
120,260,130,70,UP,RIGHT,200,13,True,True,True,False,False,False,UP,UP
440,200,450,270,DOWN,RIGHT,80,16,True,True,False,True,False,False,DOWN,DOWN
330,360,100,50,UP,LEFT,540,52,False,True,True,True,False,False,LEFT,LEFT
380,430,380,200,UP,EQUAL,230,59,True,True,True,False,True,True,UP,UP
170,80,180,80,EQUAL,RIGHT,10,11,True,False,True,True,True,False,RIGHT,RIGHT
120,50,280,160,DOWN,RIGHT,270,32,True,True,True,False,True,False,UP,UP
220,330,30,410,DOWN,LEFT,270,41,True,True,True,False,True,False,UP,UP
50,100,400,20,UP,RIGHT,430,8,True,True,True,False,True,False,UP,UP
400,170,390,170,EQUAL,LEFT,10,49,True,True,False,True,False,False,DOWN,DOWN
50,80,400,20,UP,RIGHT,410,8,True,True,True,False,True,False,UP,UP
50,350,210,440,DOWN,RIGHT,250,44,True,True,True,False,True,False,UP,UP
300,210,40,400,DOWN,LEFT,450,39,False,True,True,True,False,False,LEFT,LEFT
70,10,180,80,DOWN,RIGHT,180,11,False,True,True,True,False,False,LEFT,DOWN
190,450,270,380,UP,RIGHT,150,35,True,False,True,True,False,False,RIGHT,RIGHT
440,150,460,20,UP,RIGHT,150,18,True,False,True,True,True,False,RIGHT,RIGHT
130,90,130,70,UP,EQUAL,20,13,True,True,True,False,False,False,UP,UP
290,350,390,260,UP,RIGHT,190,38,True,True,True,False,True,True,UP,RIGHT
390,240,370,230,UP,LEFT,30,50,True,False,True,True,True,False,RIGHT,RIGHT
60,300,290,50,UP,RIGHT,480,42,True,False,True,True,False,False,RIGHT,RIGHT
240,170,280,160,UP,RIGHT,50,32,False,True,True,True,False,False,LEFT,LEFT
310,330,440,370,DOWN,RIGHT,170,37,True,False,True,True,False,False,RIGHT,RIGHT
150,410,220,360,UP,RIGHT,120,40,True,False,True,True,True,False,RIGHT,RIGHT
450,230,120,80,UP,LEFT,480,61,True,True,False,True,True,False,DOWN,DOWN
320,150,310,120,UP,LEFT,40,48,True,True,True,False,False,False,UP,LEFT
60,100,60,180,DOWN,EQUAL,80,14,True,True,False,True,True,False,DOWN,DOWN
390,200,360,430,DOWN,LEFT,260,56,True,True,False,True,False,False,DOWN,DOWN
320,210,20,330,DOWN,LEFT,420,33,True,True,False,True,False,False,DOWN,DOWN
110,120,30,440,DOWN,LEFT,400,12,False,True,True,True,False,False,LEFT,LEFT
160,0,420,20,DOWN,RIGHT,280,4,True,False,False,True,False,False,RIGHT,RIGHT
290,170,280,160,UP,LEFT,20,32,True,True,False,True,False,False,DOWN,LEFT
370,50,390,80,DOWN,RIGHT,50,55,True,False,True,True,False,False,RIGHT,RIGHT
130,120,120,70,UP,LEFT,60,31,False,True,True,True,False,False,LEFT,LEFT
190,20,400,20,EQUAL,RIGHT,210,8,True,True,True,False,False,False,UP,UP
180,220,180,360,DOWN,EQUAL,140,53,True,True,False,True,True,False,DOWN,DOWN
300,50,310,120,DOWN,RIGHT,80,48,True,True,True,False,False,False,UP,RIGHT
400,200,390,170,UP,LEFT,40,49,True,True,False,True,False,False,DOWN,DOWN
350,150,460,20,UP,RIGHT,240,18,True,False,True,True,True,False,RIGHT,RIGHT
20,340,30,410,DOWN,RIGHT,80,41,True,True,False,True,True,False,DOWN,DOWN
380,300,280,210,UP,LEFT,190,17,False,True,True,True,False,False,LEFT,LEFT
280,240,280,210,UP,EQUAL,30,17,True,True,True,False,True,False,UP,UP
320,150,450,270,DOWN,RIGHT,250,16,True,False,True,True,False,False,RIGHT,RIGHT
320,60,120,50,UP,LEFT,210,27,True,True,True,False,True,False,UP,UP
200,330,20,330,EQUAL,LEFT,180,33,False,True,True,True,False,False,LEFT,LEFT
240,360,100,50,UP,LEFT,450,52,False,True,True,True,False,False,LEFT,LEFT
60,220,260,150,UP,RIGHT,270,15,True,True,False,True,True,False,DOWN,RIGHT
200,110,50,250,DOWN,LEFT,290,7,True,True,False,True,False,False,DOWN,DOWN
180,210,180,360,DOWN,EQUAL,150,53,True,True,False,True,True,False,DOWN,DOWN
300,430,390,260,UP,RIGHT,260,38,False,True,True,True,True,False,LEFT,LEFT
450,360,460,440,DOWN,RIGHT,90,58,True,True,False,True,True,False,DOWN,DOWN
60,70,220,70,EQUAL,RIGHT,160,29,True,True,False,True,True,False,DOWN,RIGHT
170,260,50,250,UP,LEFT,130,7,False,True,True,True,True,False,LEFT,LEFT
70,280,100,10,UP,RIGHT,300,10,True,True,True,False,True,False,UP,UP
440,400,390,260,UP,LEFT,190,38,True,True,False,True,False,False,DOWN,DOWN
370,230,370,330,EQUAL,EQUAL,100,51,True,True,False,True,False,False,DOWN,DOWN
390,70,390,80,DOWN,EQUAL,10,55,True,True,False,True,False,False,DOWN,DOWN
120,20,100,10,UP,LEFT,30,10,True,True,False,True,True,False,DOWN,DOWN
200,310,430,320,DOWN,RIGHT,240,46,True,False,True,True,True,False,RIGHT,RIGHT
180,410,220,360,UP,RIGHT,90,40,True,False,True,True,True,False,RIGHT,RIGHT
320,280,180,280,EQUAL,LEFT,140,24,False,True,True,True,True,False,LEFT,LEFT
80,30,60,180,DOWN,LEFT,170,14,False,True,True,True,False,False,LEFT,LEFT
310,370,100,370,EQUAL,LEFT,210,9,False,True,True,True,True,False,LEFT,LEFT
300,230,460,190,UP,RIGHT,200,20,True,False,True,True,False,False,RIGHT,RIGHT
450,160,370,230,DOWN,LEFT,150,50,True,True,True,False,True,False,UP,UP
440,230,460,190,UP,RIGHT,60,20,True,False,True,True,False,False,RIGHT,RIGHT
430,230,40,240,DOWN,LEFT,400,57,True,True,True,False,True,False,UP,LEFT
70,140,100,10,UP,RIGHT,160,10,True,True,True,False,True,False,UP,UP
160,150,170,100,UP,RIGHT,60,6,True,True,False,True,False,False,DOWN,DOWN
450,190,460,440,DOWN,RIGHT,260,58,True,False,True,True,True,False,RIGHT,DOWN
300,450,280,450,EQUAL,LEFT,20,47,False,True,True,True,False,False,LEFT,LEFT
110,330,20,330,EQUAL,LEFT,90,33,False,True,True,True,False,False,LEFT,LEFT
220,190,460,440,DOWN,RIGHT,490,58,True,False,True,True,True,False,RIGHT,RIGHT
380,330,440,370,DOWN,RIGHT,100,37,True,False,True,True,False,False,RIGHT,RIGHT
310,100,310,120,DOWN,EQUAL,20,48,True,False,False,True,True,True,DOWN,DOWN
20,110,10,110,EQUAL,LEFT,10,28,True,True,False,True,False,False,DOWN,DOWN
50,280,10,460,DOWN,LEFT,220,25,False,True,True,True,True,False,LEFT,LEFT
210,450,210,440,UP,EQUAL,10,44,False,True,True,True,False,False,LEFT,LEFT
320,230,460,190,UP,RIGHT,180,20,True,False,True,True,False,False,RIGHT,RIGHT
250,150,260,150,EQUAL,RIGHT,10,15,True,False,True,True,False,False,RIGHT,RIGHT
220,300,290,50,UP,RIGHT,320,42,True,False,True,True,False,False,RIGHT,RIGHT
190,280,30,410,DOWN,LEFT,290,41,False,True,True,True,True,False,LEFT,LEFT
130,280,10,460,DOWN,LEFT,300,25,False,True,True,True,True,False,LEFT,LEFT
190,260,150,260,EQUAL,LEFT,40,21,False,True,True,True,False,False,LEFT,LEFT
250,70,270,120,DOWN,RIGHT,70,30,True,False,True,True,False,False,RIGHT,RIGHT
100,230,40,240,DOWN,LEFT,70,57,False,True,True,True,True,False,LEFT,DOWN
310,120,390,170,EQUAL,EQUAL,130,49,True,False,False,True,True,True,DOWN,DOWN
80,310,110,440,DOWN,RIGHT,160,22,True,True,False,True,False,False,DOWN,RIGHT
340,230,460,190,UP,RIGHT,160,20,True,False,True,True,False,False,RIGHT,RIGHT
140,160,260,150,UP,RIGHT,130,15,True,True,True,False,True,False,UP,UP
350,280,180,280,EQUAL,LEFT,170,24,True,True,True,False,True,False,UP,LEFT
260,210,40,210,EQUAL,LEFT,220,45,False,True,True,True,True,False,LEFT,LEFT
220,450,270,380,UP,RIGHT,120,35,True,False,True,True,False,False,RIGHT,RIGHT
10,440,10,460,DOWN,EQUAL,20,25,True,True,False,True,True,False,DOWN,DOWN
160,310,390,80,UP,RIGHT,460,55,True,True,True,False,False,False,UP,UP
140,70,220,70,EQUAL,RIGHT,80,29,True,False,True,True,False,False,RIGHT,RIGHT
390,220,40,400,DOWN,LEFT,530,39,True,True,True,False,False,False,UP,UP
230,160,280,160,EQUAL,RIGHT,50,32,True,True,False,False,True,False,DOWN,RIGHT
130,120,130,70,UP,EQUAL,50,13,True,True,True,False,False,False,UP,UP
240,440,40,210,UP,LEFT,430,45,True,False,True,True,False,False,RIGHT,RIGHT
440,80,120,80,EQUAL,EQUAL,320,61,True,False,True,True,True,False,RIGHT,RIGHT
360,260,150,260,EQUAL,LEFT,210,21,False,True,True,True,False,False,LEFT,LEFT
120,60,130,10,UP,RIGHT,60,3,True,True,False,True,True,False,DOWN,DOWN
40,360,30,440,DOWN,LEFT,90,12,True,True,False,True,False,False,DOWN,DOWN
230,260,150,260,EQUAL,LEFT,80,21,False,True,True,True,False,False,LEFT,LEFT
250,40,280,160,DOWN,RIGHT,150,32,True,False,True,True,True,False,RIGHT,RIGHT
50,90,10,110,DOWN,LEFT,60,28,False,True,True,True,False,False,LEFT,LEFT
150,0,130,10,DOWN,LEFT,30,3,False,True,False,True,False,False,LEFT,LEFT
120,290,130,70,UP,RIGHT,230,13,True,True,True,False,False,False,UP,UP
110,30,100,10,UP,LEFT,30,10,True,True,True,False,True,False,UP,UP
70,30,400,20,UP,RIGHT,340,8,True,False,True,True,True,False,RIGHT,RIGHT
370,90,370,230,DOWN,EQUAL,140,50,False,True,True,True,True,False,LEFT,LEFT
160,150,280,160,DOWN,RIGHT,130,32,True,False,True,True,True,True,RIGHT,RIGHT
120,210,40,400,DOWN,LEFT,270,39,False,True,True,True,False,False,LEFT,LEFT
280,230,40,240,DOWN,LEFT,250,57,False,True,True,True,True,False,LEFT,LEFT
160,390,80,410,DOWN,LEFT,100,34,True,True,False,True,False,False,DOWN,LEFT
340,50,390,80,DOWN,RIGHT,80,55,True,False,True,True,False,False,RIGHT,RIGHT
40,300,290,50,UP,RIGHT,500,42,True,False,True,True,False,False,RIGHT,RIGHT
160,230,40,240,DOWN,LEFT,130,57,False,True,True,True,True,False,LEFT,LEFT
150,340,160,420,DOWN,RIGHT,90,43,True,True,False,True,False,False,DOWN,DOWN
380,240,370,230,UP,LEFT,20,50,True,False,True,True,True,False,RIGHT,RIGHT
280,160,460,20,UP,RIGHT,320,18,True,True,True,False,True,False,UP,UP
80,120,30,440,DOWN,LEFT,370,12,False,True,True,True,False,False,LEFT,LEFT
180,200,180,360,DOWN,EQUAL,160,53,True,True,False,True,True,False,DOWN,DOWN
310,150,450,270,DOWN,RIGHT,260,16,True,False,True,True,False,False,RIGHT,RIGHT
50,280,30,410,DOWN,LEFT,150,41,False,True,True,True,True,False,LEFT,LEFT
270,370,100,370,EQUAL,LEFT,170,9,False,True,True,True,True,False,LEFT,LEFT
160,60,160,420,DOWN,EQUAL,360,43,True,True,False,True,True,False,DOWN,DOWN
40,210,40,400,DOWN,EQUAL,190,39,False,True,True,True,False,False,LEFT,DOWN
170,100,50,250,EQUAL,EQUAL,270,7,True,True,True,False,True,False,UP,UP
30,300,290,50,UP,RIGHT,510,42,True,True,True,False,False,False,UP,RIGHT
10,300,10,460,DOWN,EQUAL,160,25,True,True,False,True,True,False,DOWN,DOWN
420,150,340,300,DOWN,LEFT,230,5,True,True,False,True,False,False,DOWN,DOWN
120,360,100,50,UP,LEFT,330,52,False,True,True,True,False,False,LEFT,LEFT
380,90,370,230,DOWN,LEFT,150,50,False,True,True,True,True,False,LEFT,LEFT
380,300,380,200,UP,EQUAL,100,59,True,True,True,False,True,True,UP,UP
70,260,50,250,UP,LEFT,30,7,False,True,True,True,True,False,LEFT,LEFT
180,70,190,190,DOWN,RIGHT,130,19,True,True,False,True,True,False,DOWN,DOWN
60,160,60,180,DOWN,EQUAL,20,14,True,True,False,True,True,False,DOWN,DOWN
320,300,280,210,UP,LEFT,130,17,False,True,True,True,False,False,LEFT,LEFT
110,100,100,10,UP,LEFT,100,10,False,True,True,True,True,False,LEFT,UP
250,40,120,50,DOWN,LEFT,140,27,False,True,True,True,True,False,LEFT,LEFT
380,420,360,430,DOWN,LEFT,30,56,False,True,True,True,True,False,LEFT,LEFT
40,180,30,440,DOWN,LEFT,270,12,True,True,False,True,False,False,DOWN,DOWN
370,260,370,330,DOWN,EQUAL,70,51,True,True,False,True,False,False,DOWN,DOWN
360,360,100,50,UP,LEFT,570,52,False,True,True,True,False,False,LEFT,LEFT
270,100,280,160,DOWN,RIGHT,70,32,True,True,False,True,True,False,DOWN,DOWN
130,110,130,70,UP,EQUAL,40,13,True,True,True,False,False,False,UP,UP
320,340,320,270,UP,EQUAL,70,26,True,True,True,False,True,False,UP,UP
260,440,40,210,UP,LEFT,450,45,True,False,True,True,False,False,RIGHT,RIGHT
300,30,400,20,UP,RIGHT,110,8,True,False,True,True,False,False,RIGHT,RIGHT
200,260,150,260,EQUAL,LEFT,50,21,False,True,True,True,False,False,LEFT,LEFT
360,0,420,20,DOWN,RIGHT,80,4,True,False,False,True,False,False,RIGHT,RIGHT
370,110,370,230,DOWN,EQUAL,120,50,True,True,False,True,False,True,DOWN,DOWN
380,180,150,260,DOWN,LEFT,310,21,True,True,False,True,True,False,DOWN,DOWN
320,190,460,440,DOWN,RIGHT,390,58,True,False,True,True,True,False,RIGHT,RIGHT
30,350,290,50,UP,RIGHT,560,42,True,False,True,False,False,False,UP,UP
110,450,270,380,UP,RIGHT,230,35,True,False,True,True,False,False,RIGHT,RIGHT
10,280,80,410,DOWN,RIGHT,200,34,True,True,True,False,True,False,UP,UP
20,170,10,110,UP,LEFT,70,28,True,True,False,True,False,False,DOWN,DOWN
320,420,360,430,DOWN,RIGHT,50,56,False,True,True,True,True,False,LEFT,LEFT
210,50,390,80,DOWN,RIGHT,210,55,True,False,True,True,False,False,RIGHT,RIGHT
270,380,40,210,UP,LEFT,400,45,True,True,True,False,False,False,UP,UP
420,60,340,300,DOWN,LEFT,320,5,True,True,False,True,False,False,DOWN,DOWN
120,470,320,270,UP,RIGHT,400,26,True,False,True,False,True,False,RIGHT,RIGHT
370,140,370,230,DOWN,EQUAL,90,50,True,True,False,True,False,False,DOWN,DOWN
280,70,270,120,DOWN,LEFT,60,30,True,False,True,True,False,False,RIGHT,DOWN
30,270,430,320,DOWN,RIGHT,450,46,True,True,False,True,True,False,DOWN,DOWN
130,60,130,10,UP,EQUAL,50,3,True,True,True,False,True,False,UP,UP
40,310,30,440,DOWN,LEFT,140,12,True,True,False,True,False,False,DOWN,DOWN
450,250,450,270,DOWN,EQUAL,20,16,True,True,False,True,False,False,DOWN,DOWN
300,10,190,190,DOWN,LEFT,290,19,False,True,True,True,False,False,LEFT,LEFT
40,440,130,70,UP,RIGHT,460,13,True,False,True,True,False,False,RIGHT,RIGHT
40,320,30,440,DOWN,LEFT,130,12,True,True,False,True,False,False,DOWN,DOWN
330,310,430,320,DOWN,RIGHT,110,46,True,False,True,True,True,False,RIGHT,RIGHT
280,150,450,270,DOWN,RIGHT,290,16,True,False,True,True,False,False,RIGHT,RIGHT
290,360,100,50,UP,LEFT,500,52,False,True,True,True,False,False,LEFT,LEFT
140,230,40,240,DOWN,LEFT,110,57,False,True,True,True,True,False,LEFT,LEFT
270,310,40,210,UP,LEFT,330,45,True,True,True,False,False,False,UP,UP
450,110,370,230,DOWN,LEFT,200,50,True,True,True,False,True,False,UP,UP
40,300,30,440,DOWN,LEFT,150,12,True,True,False,True,False,False,DOWN,DOWN
370,310,430,320,DOWN,RIGHT,70,46,True,False,True,True,True,False,RIGHT,RIGHT
80,260,110,440,DOWN,RIGHT,210,22,False,True,True,True,False,False,LEFT,DOWN
130,150,130,70,UP,EQUAL,80,13,True,True,True,False,False,False,UP,UP
40,280,30,410,DOWN,LEFT,140,41,False,True,True,True,True,False,LEFT,LEFT
370,330,100,50,EQUAL,EQUAL,550,52,True,True,False,True,False,False,DOWN,DOWN
110,250,100,50,UP,LEFT,210,52,True,True,True,False,True,False,UP,UP
390,100,360,430,DOWN,LEFT,360,56,True,True,False,True,False,False,DOWN,DOWN
160,140,260,150,DOWN,RIGHT,110,15,True,False,True,True,False,False,RIGHT,RIGHT
60,90,10,110,DOWN,LEFT,70,28,False,True,True,True,False,False,LEFT,LEFT
330,370,100,370,EQUAL,LEFT,230,9,False,True,True,True,True,False,LEFT,LEFT
370,130,370,230,DOWN,EQUAL,100,50,True,True,False,True,False,False,DOWN,DOWN
380,410,380,200,UP,EQUAL,210,59,True,True,True,False,True,True,UP,UP
60,30,400,20,UP,RIGHT,350,8,True,False,True,True,True,False,RIGHT,RIGHT
380,250,150,260,DOWN,LEFT,240,21,True,True,False,True,True,False,DOWN,DOWN
310,30,400,20,UP,RIGHT,100,8,True,False,True,True,False,False,RIGHT,RIGHT
240,260,150,260,EQUAL,LEFT,90,21,False,True,True,True,False,False,LEFT,LEFT
100,30,60,180,DOWN,LEFT,190,14,False,True,True,True,False,False,LEFT,LEFT
320,410,320,270,UP,EQUAL,140,26,True,True,True,False,True,False,UP,UP
140,210,40,400,DOWN,LEFT,290,39,False,True,True,True,False,False,LEFT,LEFT
190,10,400,20,DOWN,RIGHT,220,8,True,True,True,False,False,False,UP,RIGHT
90,310,430,320,DOWN,RIGHT,350,46,True,False,True,True,True,False,RIGHT,RIGHT
200,180,50,250,DOWN,LEFT,220,7,True,True,False,True,False,False,DOWN,DOWN
240,300,290,50,UP,RIGHT,300,42,True,False,True,True,False,False,RIGHT,RIGHT
130,220,260,150,UP,RIGHT,200,15,True,False,True,True,True,False,RIGHT,RIGHT
180,140,260,150,DOWN,RIGHT,90,15,True,False,True,True,False,False,RIGHT,RIGHT
200,450,210,440,UP,RIGHT,20,44,False,True,True,True,False,False,LEFT,LEFT
170,130,170,100,UP,EQUAL,30,6,True,True,True,False,True,False,UP,UP
280,0,420,20,DOWN,RIGHT,160,4,True,False,False,True,False,False,RIGHT,RIGHT
120,50,130,10,UP,RIGHT,50,3,True,True,False,True,True,False,DOWN,DOWN
430,270,40,240,UP,LEFT,420,57,True,True,True,False,True,False,UP,UP
430,320,280,450,EQUAL,EQUAL,280,47,True,True,False,True,False,False,DOWN,DOWN
130,420,160,410,UP,RIGHT,40,54,False,True,True,True,True,False,LEFT,LEFT
30,220,430,320,DOWN,RIGHT,500,46,True,True,False,True,True,False,DOWN,DOWN
140,330,20,330,EQUAL,LEFT,120,33,False,True,True,True,False,False,LEFT,LEFT
240,190,460,440,DOWN,RIGHT,470,58,True,False,True,True,True,False,RIGHT,RIGHT
80,290,80,410,DOWN,EQUAL,120,34,True,True,False,True,False,True,DOWN,DOWN
320,250,120,50,UP,LEFT,400,27,True,True,True,False,True,False,UP,UP
80,90,10,110,DOWN,LEFT,90,28,False,True,True,True,False,False,LEFT,LEFT
270,260,40,210,UP,LEFT,280,45,True,True,True,False,False,False,UP,UP
10,320,10,460,DOWN,EQUAL,140,25,True,True,False,True,True,False,DOWN,DOWN
290,270,290,50,UP,EQUAL,220,42,True,True,True,False,False,False,UP,UP
200,10,400,20,DOWN,RIGHT,210,8,True,False,True,True,False,False,RIGHT,RIGHT
190,160,190,190,DOWN,EQUAL,30,19,True,True,False,True,False,False,DOWN,DOWN
310,70,310,120,DOWN,EQUAL,50,48,True,False,False,True,True,True,DOWN,DOWN
40,150,30,440,DOWN,LEFT,300,12,True,True,False,True,False,False,DOWN,DOWN
170,310,430,320,DOWN,RIGHT,270,46,True,False,True,True,True,False,RIGHT,RIGHT
130,210,130,70,UP,EQUAL,140,13,True,True,True,False,False,False,UP,UP
440,190,450,270,DOWN,RIGHT,90,16,True,True,False,True,False,False,DOWN,DOWN
50,420,210,440,DOWN,RIGHT,180,44,True,True,True,False,True,False,UP,UP
440,380,390,260,UP,LEFT,170,38,True,True,False,True,False,False,DOWN,DOWN
230,370,100,370,EQUAL,LEFT,130,9,False,True,True,True,True,False,LEFT,LEFT
350,310,340,300,UP,LEFT,20,5,False,True,True,True,True,False,LEFT,LEFT
340,150,450,270,DOWN,RIGHT,230,16,True,False,True,True,False,False,RIGHT,RIGHT
150,150,280,160,DOWN,RIGHT,140,32,True,False,True,True,True,True,RIGHT,RIGHT
50,70,400,20,UP,RIGHT,400,8,True,True,True,False,True,False,UP,UP
280,270,280,210,UP,EQUAL,60,17,True,True,True,False,True,False,UP,UP
410,240,370,230,UP,LEFT,50,50,True,False,True,True,True,False,RIGHT,RIGHT
50,310,430,320,DOWN,RIGHT,390,46,True,False,True,True,True,False,RIGHT,RIGHT
180,280,30,410,DOWN,LEFT,280,41,False,True,True,True,True,False,LEFT,LEFT
40,370,40,400,DOWN,EQUAL,30,39,True,True,False,True,True,False,DOWN,DOWN
230,430,310,120,UP,RIGHT,390,48,True,True,True,False,True,False,UP,UP
230,440,40,210,UP,LEFT,420,45,True,False,True,True,False,False,RIGHT,RIGHT
260,450,310,120,UP,RIGHT,380,48,False,True,True,True,False,False,LEFT,LEFT
380,220,150,260,DOWN,LEFT,270,21,True,True,False,True,True,False,DOWN,DOWN
30,280,30,410,DOWN,EQUAL,130,41,False,True,True,True,True,False,LEFT,LEFT
80,390,80,410,DOWN,EQUAL,20,34,False,True,True,True,False,False,LEFT,DOWN
70,270,80,410,DOWN,RIGHT,150,34,True,False,True,True,False,False,RIGHT,RIGHT
30,250,430,320,DOWN,RIGHT,470,46,True,True,False,True,True,False,DOWN,DOWN
170,40,120,50,DOWN,LEFT,60,27,False,True,True,True,True,False,LEFT,DOWN
290,160,290,50,UP,EQUAL,110,42,True,True,True,False,False,False,UP,UP
220,90,30,440,DOWN,LEFT,540,12,True,True,False,True,False,False,DOWN,DOWN
220,370,100,370,EQUAL,LEFT,120,9,False,True,True,True,True,False,LEFT,LEFT
110,360,100,50,UP,LEFT,320,52,False,True,True,True,False,False,LEFT,UP
40,240,30,440,DOWN,LEFT,210,12,True,True,False,True,False,False,DOWN,DOWN
340,180,170,100,UP,LEFT,250,6,True,True,True,False,True,False,UP,UP
50,240,40,240,EQUAL,LEFT,10,57,False,True,True,True,False,False,LEFT,LEFT
150,410,30,410,EQUAL,LEFT,120,41,True,True,True,False,True,True,UP,LEFT
30,240,460,440,DOWN,RIGHT,630,58,False,True,True,True,False,False,LEFT,LEFT
290,160,20,330,DOWN,LEFT,440,33,True,False,True,True,False,False,RIGHT,RIGHT
300,50,390,80,DOWN,RIGHT,120,55,True,False,True,True,False,False,RIGHT,RIGHT
200,40,120,50,DOWN,LEFT,90,27,False,True,True,True,True,False,LEFT,LEFT
290,420,360,430,DOWN,RIGHT,80,56,False,True,True,True,True,False,LEFT,DOWN
390,210,390,170,UP,EQUAL,40,49,False,True,True,False,True,True,UP,UP
140,390,80,410,DOWN,LEFT,80,34,False,True,True,True,False,False,LEFT,LEFT
440,10,190,190,DOWN,LEFT,430,19,False,True,True,True,False,False,LEFT,LEFT
130,50,180,360,DOWN,RIGHT,360,53,True,False,True,True,False,False,RIGHT,RIGHT
160,30,160,420,DOWN,EQUAL,390,43,False,True,True,True,False,False,LEFT,DOWN
170,370,100,370,EQUAL,LEFT,70,9,False,True,True,True,True,False,LEFT,LEFT
160,210,40,400,DOWN,LEFT,310,39,False,True,True,True,False,False,LEFT,LEFT
210,40,280,160,DOWN,RIGHT,190,32,True,False,True,True,True,False,RIGHT,RIGHT
40,160,30,440,DOWN,LEFT,290,12,True,True,False,True,False,False,DOWN,DOWN
400,450,380,200,UP,LEFT,270,59,False,True,True,True,False,False,LEFT,LEFT
160,120,120,70,UP,LEFT,90,31,False,True,True,True,False,False,LEFT,LEFT
330,150,450,270,DOWN,RIGHT,240,16,True,False,True,True,False,False,RIGHT,RIGHT
290,400,390,260,UP,RIGHT,240,38,True,True,True,False,True,False,UP,UP
450,280,280,210,UP,LEFT,240,17,True,True,False,True,False,False,DOWN,DOWN
150,370,160,420,DOWN,RIGHT,60,43,True,True,False,True,False,False,DOWN,DOWN
380,210,150,260,DOWN,LEFT,280,21,True,True,False,True,True,False,DOWN,DOWN
60,440,130,70,UP,RIGHT,440,13,True,False,True,True,False,False,RIGHT,RIGHT
200,70,50,250,DOWN,LEFT,330,7,True,True,False,True,False,False,DOWN,DOWN
370,240,370,230,UP,EQUAL,10,50,True,False,True,True,True,False,RIGHT,RIGHT
90,190,460,440,DOWN,RIGHT,620,58,True,False,True,True,True,False,RIGHT,RIGHT
390,330,360,430,DOWN,LEFT,130,56,True,True,False,True,False,False,DOWN,DOWN
450,240,460,440,DOWN,RIGHT,210,58,True,True,False,True,True,False,DOWN,DOWN
60,60,60,180,DOWN,EQUAL,120,14,True,True,False,True,True,False,DOWN,DOWN
260,310,430,320,DOWN,RIGHT,180,46,True,False,True,True,True,False,RIGHT,RIGHT
270,330,300,330,EQUAL,RIGHT,30,36,True,True,True,False,True,False,UP,RIGHT
180,410,160,410,EQUAL,LEFT,20,54,True,True,False,True,True,False,DOWN,DOWN
420,320,100,370,DOWN,LEFT,370,9,True,True,False,True,False,False,DOWN,DOWN
360,50,390,80,DOWN,RIGHT,60,55,True,False,True,True,False,False,RIGHT,RIGHT
10,40,220,70,DOWN,RIGHT,240,29,True,True,True,False,False,False,UP,UP
450,120,370,230,DOWN,LEFT,190,50,True,True,True,False,True,False,UP,UP
320,390,310,120,UP,LEFT,280,48,True,True,True,False,False,False,UP,UP
380,130,390,170,DOWN,RIGHT,50,49,True,False,True,True,False,False,RIGHT,RIGHT
170,0,420,20,DOWN,RIGHT,270,4,True,False,False,True,False,False,RIGHT,RIGHT
390,80,360,430,EQUAL,EQUAL,380,56,True,True,False,True,False,False,DOWN,DOWN
220,320,30,410,DOWN,LEFT,280,41,True,True,True,False,True,False,UP,UP
170,210,40,400,DOWN,LEFT,320,39,False,True,True,True,False,False,LEFT,LEFT
270,310,430,320,DOWN,RIGHT,170,46,True,False,True,True,True,False,RIGHT,RIGHT
230,440,350,310,UP,RIGHT,250,23,True,False,True,True,False,False,RIGHT,RIGHT
40,290,30,440,DOWN,LEFT,160,12,True,True,False,True,False,False,DOWN,DOWN
40,310,430,320,DOWN,RIGHT,400,46,True,False,True,True,True,True,RIGHT,RIGHT
250,440,40,210,UP,LEFT,440,45,True,False,True,True,False,False,RIGHT,RIGHT
320,290,20,330,DOWN,LEFT,340,33,True,True,False,True,False,False,DOWN,DOWN
440,220,450,270,DOWN,RIGHT,60,16,True,True,False,True,False,False,DOWN,RIGHT
280,250,280,210,UP,EQUAL,40,17,True,True,True,False,True,False,UP,UP
360,300,280,210,UP,LEFT,170,17,False,True,True,True,False,False,LEFT,LEFT
360,150,460,20,UP,RIGHT,230,18,True,False,True,True,True,False,RIGHT,RIGHT
110,260,100,50,UP,LEFT,220,52,True,True,True,False,True,False,UP,UP
460,10,190,190,DOWN,LEFT,450,19,True,True,True,False,False,False,UP,LEFT
50,210,40,400,DOWN,LEFT,200,39,False,True,True,True,False,False,LEFT,LEFT
320,280,310,120,UP,LEFT,170,48,True,True,True,False,False,False,UP,UP
410,310,340,300,UP,LEFT,80,5,False,True,True,True,True,False,LEFT,LEFT
150,410,160,420,DOWN,RIGHT,20,43,True,True,False,True,False,False,DOWN,DOWN
100,440,110,440,EQUAL,RIGHT,10,22,True,True,False,True,False,False,DOWN,RIGHT
410,80,440,80,EQUAL,RIGHT,30,60,True,False,True,True,True,False,RIGHT,RIGHT
130,260,110,440,DOWN,LEFT,200,22,False,True,True,True,False,False,LEFT,LEFT
60,210,40,210,EQUAL,LEFT,20,45,False,True,True,True,True,False,LEFT,LEFT
30,380,290,50,UP,RIGHT,590,42,True,False,True,False,False,False,UP,UP
290,280,290,50,UP,EQUAL,230,42,True,True,True,False,False,False,UP,UP
230,190,460,440,DOWN,RIGHT,480,58,True,False,True,True,True,False,RIGHT,RIGHT
70,220,100,10,UP,RIGHT,240,10,True,True,True,False,True,False,UP,UP
40,120,30,440,DOWN,LEFT,330,12,False,True,True,True,False,False,LEFT,DOWN
100,430,110,440,DOWN,RIGHT,20,22,True,True,False,True,False,False,DOWN,DOWN
30,240,430,320,DOWN,RIGHT,480,46,True,True,False,True,True,False,DOWN,DOWN
270,240,40,210,UP,LEFT,260,45,True,True,True,False,False,False,UP,UP
190,140,190,190,DOWN,EQUAL,50,19,True,True,False,True,False,False,DOWN,DOWN
300,440,350,310,UP,RIGHT,180,23,True,False,True,True,False,False,RIGHT,RIGHT
190,320,210,440,DOWN,RIGHT,140,44,True,True,False,True,True,False,DOWN,DOWN
130,410,220,360,UP,RIGHT,140,40,True,False,True,True,True,False,RIGHT,RIGHT
340,200,170,100,UP,LEFT,270,6,True,True,True,False,True,False,UP,UP
390,320,360,430,DOWN,LEFT,140,56,True,True,False,True,False,False,DOWN,DOWN
310,60,310,120,DOWN,EQUAL,60,48,True,False,False,True,True,True,DOWN,DOWN
150,400,160,420,DOWN,RIGHT,30,43,True,True,False,True,False,False,DOWN,DOWN
180,90,190,190,DOWN,RIGHT,110,19,True,True,False,True,True,False,DOWN,DOWN
320,410,310,120,UP,LEFT,300,48,True,False,True,True,True,False,RIGHT,UP
70,60,100,10,UP,RIGHT,80,10,True,True,True,False,True,False,UP,UP
160,200,390,80,UP,RIGHT,350,55,True,True,True,False,False,False,UP,UP
190,120,120,70,UP,LEFT,120,31,False,True,True,True,False,False,LEFT,LEFT
280,210,40,400,DOWN,LEFT,430,39,False,True,True,True,False,False,LEFT,LEFT
200,210,40,210,EQUAL,LEFT,160,45,False,True,True,True,True,False,LEFT,LEFT
150,140,260,150,DOWN,RIGHT,120,15,True,False,True,True,False,False,RIGHT,RIGHT
380,210,380,200,UP,EQUAL,10,59,True,True,True,False,True,False,UP,UP
100,70,220,70,EQUAL,RIGHT,120,29,True,False,True,True,False,False,RIGHT,RIGHT
90,210,40,400,DOWN,LEFT,240,39,False,True,True,True,False,False,LEFT,LEFT
440,410,390,260,UP,LEFT,200,38,True,True,False,True,False,False,DOWN,DOWN
220,90,170,100,DOWN,LEFT,60,6,False,True,True,True,False,False,LEFT,LEFT
310,260,150,260,EQUAL,LEFT,160,21,False,True,True,True,False,False,LEFT,LEFT
180,300,210,440,DOWN,RIGHT,170,44,True,False,True,True,True,False,RIGHT,RIGHT
340,30,400,20,UP,RIGHT,70,8,True,False,True,True,False,False,RIGHT,UP
110,320,100,50,UP,LEFT,280,52,True,True,True,False,True,False,UP,UP
320,220,20,330,DOWN,LEFT,410,33,True,True,False,True,False,False,DOWN,DOWN
340,190,170,100,UP,LEFT,260,6,True,True,True,False,True,False,UP,UP
160,420,210,440,EQUAL,EQUAL,70,44,True,False,True,True,False,False,RIGHT,RIGHT
420,90,370,230,DOWN,LEFT,190,50,False,True,True,True,True,False,LEFT,LEFT
420,170,100,370,DOWN,LEFT,520,9,True,True,False,True,False,False,DOWN,DOWN
160,120,160,420,DOWN,EQUAL,300,43,True,True,False,True,True,False,DOWN,DOWN
150,360,100,50,UP,LEFT,360,52,False,True,True,True,False,False,LEFT,LEFT
70,80,100,10,UP,RIGHT,100,10,True,True,True,False,True,False,UP,UP
110,70,100,10,UP,LEFT,70,10,False,True,True,False,True,False,UP,UP
370,310,370,330,DOWN,EQUAL,20,51,True,True,False,True,False,False,DOWN,DOWN
370,300,370,330,DOWN,EQUAL,30,51,True,True,False,True,False,False,DOWN,DOWN
60,120,60,180,DOWN,EQUAL,60,14,True,True,False,True,True,False,DOWN,DOWN
350,0,420,20,DOWN,RIGHT,90,4,True,False,False,True,False,False,RIGHT,RIGHT
350,360,100,50,UP,LEFT,560,52,False,True,True,True,False,False,LEFT,LEFT
290,470,320,270,UP,RIGHT,230,26,True,False,True,False,True,False,RIGHT,RIGHT
130,160,130,70,UP,EQUAL,90,13,True,True,True,False,False,False,UP,UP
310,280,180,280,EQUAL,LEFT,130,24,False,True,True,True,True,False,LEFT,LEFT
270,150,450,270,DOWN,RIGHT,300,16,True,False,True,True,False,False,RIGHT,RIGHT
170,450,270,380,UP,RIGHT,170,35,True,False,True,True,False,False,RIGHT,RIGHT
340,0,420,20,DOWN,RIGHT,100,4,True,False,False,True,False,False,RIGHT,RIGHT
240,410,310,120,UP,RIGHT,360,48,True,False,True,True,True,True,RIGHT,RIGHT
450,270,460,440,DOWN,RIGHT,180,58,True,True,False,True,True,False,DOWN,DOWN
390,120,360,430,DOWN,LEFT,340,56,True,True,False,True,False,False,DOWN,DOWN
350,300,280,210,UP,LEFT,160,17,False,True,True,True,False,False,LEFT,LEFT
160,120,170,100,UP,RIGHT,30,6,True,True,False,True,False,False,DOWN,DOWN
160,60,390,80,DOWN,RIGHT,250,55,True,True,True,False,False,False,UP,UP
280,310,430,320,DOWN,RIGHT,160,46,True,False,True,True,True,False,RIGHT,RIGHT
120,250,130,70,UP,RIGHT,190,13,True,True,True,False,False,False,UP,UP
430,310,40,240,UP,LEFT,460,57,True,True,True,False,True,False,UP,UP
220,10,190,190,DOWN,LEFT,210,19,False,True,True,True,False,False,LEFT,LEFT
220,70,270,120,EQUAL,EQUAL,100,30,True,False,True,True,False,False,RIGHT,RIGHT
410,10,190,190,DOWN,LEFT,400,19,False,True,True,True,False,False,LEFT,LEFT
390,360,360,430,DOWN,LEFT,100,56,True,True,False,True,False,False,DOWN,DOWN
370,340,100,50,UP,LEFT,560,52,True,True,False,True,False,False,DOWN,DOWN
190,30,400,20,UP,RIGHT,220,8,True,False,True,True,True,False,RIGHT,UP
430,450,280,450,EQUAL,LEFT,150,47,True,True,False,True,False,False,DOWN,LEFT
440,300,280,210,UP,LEFT,250,17,False,True,True,True,False,False,LEFT,LEFT
140,210,40,210,EQUAL,LEFT,100,45,False,True,True,True,True,False,LEFT,LEFT
420,200,100,370,DOWN,LEFT,490,9,True,True,False,True,False,False,DOWN,DOWN
380,130,440,80,UP,RIGHT,110,60,True,True,True,False,True,False,UP,UP
350,370,350,310,UP,EQUAL,60,23,True,True,True,False,True,False,UP,UP
420,300,280,210,UP,LEFT,230,17,False,True,True,True,False,False,LEFT,LEFT
220,30,160,420,DOWN,LEFT,450,43,False,True,True,True,False,False,LEFT,LEFT
440,180,450,270,DOWN,RIGHT,100,16,True,True,False,True,False,False,DOWN,DOWN
160,420,160,410,UP,EQUAL,10,54,False,True,True,True,True,False,LEFT,LEFT
460,80,460,20,UP,EQUAL,60,18,True,True,True,False,False,False,UP,UP
150,360,160,420,DOWN,RIGHT,70,43,True,True,False,True,False,False,DOWN,DOWN
50,250,400,20,EQUAL,EQUAL,580,8,True,True,True,False,True,False,UP,UP
120,300,130,70,UP,RIGHT,240,13,True,False,True,True,False,False,RIGHT,UP
120,320,110,440,DOWN,LEFT,130,22,True,True,False,True,False,False,DOWN,DOWN
150,120,120,70,UP,LEFT,80,31,False,True,True,True,False,False,LEFT,LEFT
40,360,40,400,DOWN,EQUAL,40,39,True,True,False,True,True,False,DOWN,DOWN
60,30,220,70,DOWN,RIGHT,200,29,True,False,True,True,True,False,RIGHT,DOWN
140,300,210,440,DOWN,RIGHT,210,44,True,False,True,True,True,False,RIGHT,RIGHT
40,280,30,440,DOWN,LEFT,170,12,True,True,False,True,False,False,DOWN,DOWN
390,260,40,400,EQUAL,EQUAL,490,39,True,True,True,False,False,False,UP,UP
70,30,100,10,UP,RIGHT,50,10,True,True,True,False,True,False,UP,UP
150,280,30,410,DOWN,LEFT,250,41,False,True,True,True,True,False,LEFT,LEFT
450,180,120,80,UP,LEFT,430,61,True,True,False,True,True,False,DOWN,DOWN
450,90,120,80,UP,LEFT,340,61,True,True,False,True,True,True,DOWN,DOWN
180,420,210,440,DOWN,RIGHT,50,44,True,False,True,True,False,False,RIGHT,RIGHT
380,10,190,190,DOWN,LEFT,370,19,False,True,True,True,False,False,LEFT,LEFT
220,50,390,80,DOWN,RIGHT,200,55,True,False,True,True,False,False,RIGHT,RIGHT
40,220,30,440,DOWN,LEFT,230,12,True,True,False,True,False,False,DOWN,DOWN
390,410,360,430,DOWN,LEFT,50,56,True,True,False,True,False,False,DOWN,DOWN
160,30,400,20,UP,RIGHT,250,8,True,False,True,True,True,False,RIGHT,RIGHT
320,150,460,20,UP,RIGHT,270,18,True,False,True,True,True,False,RIGHT,RIGHT
70,420,160,410,UP,RIGHT,100,54,False,True,True,True,True,False,LEFT,UP
260,370,100,370,EQUAL,LEFT,160,9,False,True,True,True,True,False,LEFT,LEFT
110,300,130,70,UP,RIGHT,250,13,True,False,True,True,False,False,RIGHT,RIGHT
290,120,290,50,UP,EQUAL,70,42,True,True,True,False,False,False,UP,UP
110,370,100,370,EQUAL,LEFT,10,9,False,True,True,True,True,False,LEFT,LEFT
170,70,220,70,EQUAL,RIGHT,50,29,True,False,True,True,False,False,RIGHT,RIGHT
370,370,100,370,EQUAL,LEFT,270,9,False,True,True,True,True,False,LEFT,LEFT
200,150,50,250,DOWN,LEFT,250,7,True,True,False,True,False,False,DOWN,DOWN
320,430,360,430,EQUAL,RIGHT,40,56,True,False,False,True,False,False,RIGHT,RIGHT
280,100,270,120,DOWN,LEFT,30,30,True,True,False,True,False,False,DOWN,DOWN
140,140,260,150,DOWN,RIGHT,130,15,True,True,True,False,True,False,UP,RIGHT
220,470,320,270,UP,RIGHT,300,26,True,False,True,False,True,False,RIGHT,RIGHT
280,170,280,160,UP,EQUAL,10,32,False,True,True,True,False,False,LEFT,LEFT
150,310,430,320,DOWN,RIGHT,290,46,True,False,True,True,True,False,RIGHT,RIGHT
70,440,130,70,UP,RIGHT,430,13,True,False,True,True,False,False,RIGHT,RIGHT
40,340,40,400,DOWN,EQUAL,60,39,True,True,False,True,True,False,DOWN,DOWN
320,360,310,120,UP,LEFT,250,48,True,True,True,False,False,False,UP,UP
180,360,160,410,EQUAL,EQUAL,70,54,True,True,False,True,True,False,DOWN,DOWN
70,180,100,10,UP,RIGHT,200,10,True,True,True,False,True,False,UP,UP
230,40,120,50,DOWN,LEFT,120,27,False,True,True,True,True,False,LEFT,LEFT
420,80,100,370,DOWN,LEFT,610,9,True,True,False,True,False,False,DOWN,DOWN
30,370,290,50,UP,RIGHT,580,42,True,False,True,False,False,False,UP,UP
420,360,100,370,DOWN,LEFT,330,9,True,True,False,True,False,False,DOWN,DOWN
220,100,30,440,DOWN,LEFT,530,12,True,True,False,True,False,False,DOWN,DOWN
70,280,30,410,DOWN,LEFT,170,41,False,True,True,True,True,False,LEFT,LEFT
70,90,10,110,DOWN,LEFT,80,28,False,True,True,True,False,False,LEFT,LEFT
190,330,210,440,DOWN,RIGHT,130,44,True,True,False,True,True,False,DOWN,DOWN
280,360,100,50,UP,LEFT,490,52,False,True,True,True,False,False,LEFT,LEFT
320,190,310,120,UP,LEFT,80,48,True,True,True,False,False,False,UP,UP
460,210,460,190,UP,EQUAL,20,20,True,True,True,False,False,False,UP,UP
150,320,160,420,DOWN,RIGHT,110,43,True,True,False,True,False,False,DOWN,DOWN
130,0,130,10,DOWN,EQUAL,10,3,False,True,False,True,False,False,LEFT,LEFT
220,380,220,360,UP,EQUAL,20,40,True,True,True,False,True,False,UP,UP
260,150,450,270,EQUAL,EQUAL,310,16,True,False,True,True,False,False,RIGHT,RIGHT
50,330,210,440,DOWN,RIGHT,270,44,True,True,True,False,True,False,UP,UP
230,10,190,190,DOWN,LEFT,220,19,False,True,True,True,False,False,LEFT,LEFT
20,350,30,410,DOWN,RIGHT,70,41,True,True,False,True,True,False,DOWN,DOWN
10,380,10,460,DOWN,EQUAL,80,25,True,True,False,True,True,False,DOWN,DOWN
430,410,40,240,UP,LEFT,560,57,True,True,True,False,True,False,UP,UP
460,150,460,20,UP,EQUAL,130,18,True,False,True,True,True,False,RIGHT,UP
30,210,430,320,DOWN,RIGHT,510,46,False,True,True,True,True,False,LEFT,DOWN
400,160,150,260,DOWN,LEFT,350,21,False,True,True,True,True,False,LEFT,LEFT
60,200,260,150,UP,RIGHT,250,15,True,True,False,True,True,False,DOWN,DOWN
170,280,10,460,DOWN,LEFT,340,25,False,True,True,True,True,False,LEFT,LEFT
180,120,120,70,UP,LEFT,110,31,False,True,True,True,False,False,LEFT,LEFT
290,90,290,50,UP,EQUAL,40,42,True,True,True,False,False,False,UP,UP
380,220,380,200,UP,EQUAL,20,59,True,True,True,False,True,False,UP,UP
340,330,440,370,DOWN,RIGHT,140,37,True,False,True,True,False,False,RIGHT,RIGHT
270,70,270,120,DOWN,EQUAL,50,30,True,False,True,True,False,False,RIGHT,RIGHT
250,440,350,310,UP,RIGHT,230,23,True,False,True,True,False,False,RIGHT,RIGHT
340,300,170,100,EQUAL,EQUAL,370,6,True,True,True,False,True,False,UP,UP
120,310,110,440,DOWN,LEFT,140,22,True,False,True,True,False,False,RIGHT,DOWN
290,300,290,50,UP,EQUAL,250,42,True,False,True,True,False,False,RIGHT,UP
100,340,130,70,UP,RIGHT,300,13,True,True,True,False,True,False,UP,UP
340,150,460,20,UP,RIGHT,250,18,True,False,True,True,True,False,RIGHT,RIGHT
310,90,310,120,DOWN,EQUAL,30,48,True,False,False,True,True,True,DOWN,DOWN
150,410,160,410,EQUAL,RIGHT,10,54,True,False,True,False,False,True,RIGHT,RIGHT
390,190,460,440,DOWN,RIGHT,320,58,True,False,True,True,True,False,RIGHT,RIGHT
200,220,50,250,DOWN,LEFT,180,7,True,True,False,True,False,False,DOWN,DOWN
410,450,280,450,EQUAL,LEFT,130,47,False,True,True,True,False,False,LEFT,LEFT
200,230,50,250,DOWN,LEFT,170,7,True,True,False,True,False,False,DOWN,DOWN
10,430,10,460,DOWN,EQUAL,30,25,True,True,False,True,True,False,DOWN,DOWN
290,110,290,50,UP,EQUAL,60,42,True,True,True,False,False,False,UP,UP
350,400,350,310,UP,EQUAL,90,23,True,True,True,False,True,False,UP,UP
340,260,150,260,EQUAL,LEFT,190,21,False,True,True,True,False,False,LEFT,LEFT
300,90,370,230,DOWN,RIGHT,210,50,False,True,True,True,True,False,LEFT,LEFT
100,120,30,440,DOWN,LEFT,390,12,False,True,True,True,False,False,LEFT,LEFT
70,420,30,410,UP,LEFT,50,41,True,False,True,True,True,False,RIGHT,RIGHT
10,290,80,410,DOWN,RIGHT,190,34,True,True,True,False,True,False,UP,UP
410,310,430,320,DOWN,RIGHT,30,46,True,False,True,True,True,False,RIGHT,RIGHT
110,450,210,440,UP,RIGHT,110,44,False,True,True,True,False,False,LEFT,LEFT
310,90,170,100,DOWN,LEFT,150,6,False,True,True,True,False,False,LEFT,LEFT
120,280,30,410,DOWN,LEFT,220,41,False,True,True,True,True,False,LEFT,LEFT
80,330,20,330,EQUAL,LEFT,60,33,False,True,True,True,False,False,LEFT,LEFT
220,360,100,50,UP,LEFT,430,52,False,True,True,True,False,False,LEFT,LEFT
390,90,370,230,DOWN,LEFT,160,50,False,True,True,True,True,False,LEFT,LEFT
220,170,280,160,UP,RIGHT,70,32,False,True,True,True,False,False,LEFT,LEFT
310,10,190,190,DOWN,LEFT,300,19,False,True,True,True,False,False,LEFT,LEFT
120,300,210,440,DOWN,RIGHT,230,44,True,False,True,True,True,False,RIGHT,RIGHT
80,290,110,440,DOWN,RIGHT,180,22,True,True,False,True,False,False,DOWN,DOWN
410,300,280,210,UP,LEFT,220,17,False,True,True,True,False,False,LEFT,LEFT
60,330,20,330,EQUAL,LEFT,40,33,False,True,True,True,False,False,LEFT,LEFT
180,30,190,190,DOWN,RIGHT,170,19,True,True,False,True,True,False,DOWN,DOWN
70,370,100,10,UP,RIGHT,390,10,False,True,True,True,True,False,LEFT,UP
160,230,390,80,UP,RIGHT,380,55,True,True,True,False,False,False,UP,UP
120,300,290,50,UP,RIGHT,420,42,True,False,True,True,False,False,RIGHT,RIGHT
270,410,270,380,UP,EQUAL,30,35,True,True,True,False,True,False,UP,UP
340,20,400,20,EQUAL,RIGHT,60,8,True,True,True,False,False,False,UP,RIGHT
270,400,270,380,UP,EQUAL,20,35,True,True,True,False,True,False,UP,UP
380,360,380,200,UP,EQUAL,160,59,True,True,True,False,True,True,UP,UP
170,150,170,100,UP,EQUAL,50,6,True,False,True,False,True,False,UP,UP
430,280,40,240,UP,LEFT,430,57,True,True,True,False,True,False,UP,UP
390,210,40,400,DOWN,LEFT,540,39,True,True,True,False,False,False,UP,LEFT
370,300,280,210,UP,LEFT,180,17,False,True,True,True,False,False,LEFT,LEFT
100,130,100,50,UP,EQUAL,80,52,True,True,True,False,False,False,UP,UP
260,120,120,70,UP,LEFT,190,31,False,True,True,True,False,False,LEFT,LEFT
230,420,310,120,UP,RIGHT,380,48,True,True,True,False,True,False,UP,UP
130,30,130,10,UP,EQUAL,20,3,True,True,True,False,True,False,UP,UP
270,270,40,210,UP,LEFT,290,45,True,True,True,False,False,False,UP,UP
240,160,280,160,EQUAL,RIGHT,40,32,True,False,True,False,False,False,RIGHT,RIGHT
290,140,290,50,UP,EQUAL,90,42,True,True,True,False,False,False,UP,UP
170,40,280,160,DOWN,RIGHT,230,32,True,False,True,True,True,False,RIGHT,RIGHT
70,300,100,10,UP,RIGHT,320,10,True,True,True,False,True,False,UP,UP
60,410,220,360,UP,RIGHT,210,40,True,False,True,True,True,False,RIGHT,RIGHT
100,370,130,70,UP,RIGHT,330,13,True,True,True,False,True,False,UP,UP
240,70,270,120,DOWN,RIGHT,80,30,True,False,True,True,False,False,RIGHT,RIGHT
110,220,260,150,UP,RIGHT,220,15,True,False,True,True,True,False,RIGHT,RIGHT
130,170,280,160,UP,RIGHT,160,32,False,True,True,True,False,False,LEFT,LEFT
450,10,190,190,DOWN,LEFT,440,19,False,True,True,True,False,False,LEFT,LEFT
320,170,310,120,UP,LEFT,60,48,True,True,True,False,False,False,UP,UP
50,360,210,440,DOWN,RIGHT,240,44,True,True,True,False,True,False,UP,UP
420,310,100,370,DOWN,LEFT,380,9,True,True,False,True,False,False,DOWN,DOWN
200,30,160,420,DOWN,LEFT,430,43,False,True,True,True,False,False,LEFT,LEFT
200,370,100,370,EQUAL,LEFT,100,9,False,True,True,True,True,False,LEFT,LEFT
300,150,450,270,DOWN,RIGHT,270,16,True,False,True,True,False,False,RIGHT,RIGHT
420,170,340,300,DOWN,LEFT,210,5,True,True,False,True,False,False,DOWN,DOWN
140,0,420,20,DOWN,RIGHT,300,4,True,False,False,True,False,False,RIGHT,RIGHT
400,90,370,230,DOWN,LEFT,170,50,False,True,True,True,True,False,LEFT,LEFT
120,340,110,440,DOWN,LEFT,110,22,True,True,False,True,False,False,DOWN,DOWN
90,280,30,410,DOWN,LEFT,190,41,False,True,True,True,True,False,LEFT,LEFT
40,330,40,400,DOWN,EQUAL,70,39,True,True,False,True,True,False,DOWN,DOWN
40,220,40,400,DOWN,EQUAL,180,39,True,True,False,True,True,False,DOWN,DOWN
390,370,360,430,DOWN,LEFT,90,56,True,True,False,True,False,False,DOWN,DOWN
390,300,280,210,UP,LEFT,200,17,False,True,True,True,False,False,LEFT,LEFT
290,420,390,260,UP,RIGHT,260,38,True,True,True,False,True,False,UP,UP
70,20,180,80,DOWN,RIGHT,170,11,True,True,False,True,False,False,DOWN,DOWN
140,120,30,440,DOWN,LEFT,430,12,False,True,True,True,False,False,LEFT,LEFT
110,90,100,10,UP,LEFT,90,10,False,True,True,False,True,False,UP,UP
290,10,190,190,DOWN,LEFT,280,19,False,True,True,True,False,False,LEFT,LEFT
110,190,100,50,UP,LEFT,150,52,True,True,True,False,True,False,UP,LEFT
130,150,280,160,DOWN,RIGHT,160,32,True,False,True,True,True,True,RIGHT,RIGHT
420,160,150,260,DOWN,LEFT,370,21,False,True,True,True,True,False,LEFT,LEFT
270,340,40,210,UP,LEFT,360,45,True,True,True,False,False,False,UP,UP
320,330,440,370,DOWN,RIGHT,160,37,True,False,True,True,False,False,RIGHT,RIGHT
320,350,320,270,UP,EQUAL,80,26,True,True,True,False,True,False,UP,UP
350,20,400,20,EQUAL,RIGHT,50,8,True,False,True,True,False,False,RIGHT,RIGHT
40,250,30,440,DOWN,LEFT,200,12,True,True,False,True,False,False,DOWN,DOWN
430,160,150,260,DOWN,LEFT,380,21,False,True,True,True,True,False,LEFT,LEFT
60,220,80,410,DOWN,RIGHT,210,34,True,False,True,True,True,True,RIGHT,DOWN
380,370,100,370,EQUAL,LEFT,280,9,False,True,True,True,True,False,LEFT,LEFT
450,350,460,440,DOWN,RIGHT,100,58,True,True,False,True,True,False,DOWN,DOWN
40,240,40,400,DOWN,EQUAL,160,39,True,True,False,True,True,False,DOWN,DOWN
270,390,270,380,UP,EQUAL,10,35,True,True,True,False,True,False,UP,UP
320,10,190,190,DOWN,LEFT,310,19,False,True,True,True,False,False,LEFT,LEFT
390,270,390,260,UP,EQUAL,10,38,True,True,True,False,False,False,UP,UP
450,100,120,80,UP,LEFT,350,61,True,True,False,True,True,True,DOWN,DOWN
470,220,120,80,UP,LEFT,490,61,False,False,True,True,False,False,RIGHT,RIGHT
320,440,320,270,UP,EQUAL,170,26,True,True,True,False,True,False,UP,UP
430,410,280,450,DOWN,LEFT,190,47,True,True,False,True,False,False,DOWN,DOWN
290,30,400,20,UP,RIGHT,120,8,True,False,True,True,False,False,RIGHT,RIGHT
220,330,20,330,EQUAL,LEFT,200,33,False,True,True,True,False,False,LEFT,LEFT
200,230,40,240,DOWN,LEFT,170,57,False,True,True,True,True,False,LEFT,LEFT
350,320,350,310,UP,EQUAL,10,23,True,True,True,False,True,False,UP,UP
10,150,10,110,UP,EQUAL,40,28,False,True,True,False,False,False,UP,UP
450,450,380,200,UP,LEFT,320,59,False,True,True,True,False,False,LEFT,LEFT
180,370,100,370,EQUAL,LEFT,80,9,False,True,True,True,True,False,LEFT,LEFT
420,280,100,370,DOWN,LEFT,410,9,True,True,False,True,False,False,DOWN,DOWN
100,140,100,50,UP,EQUAL,90,52,True,True,True,False,False,False,UP,UP
190,210,40,400,DOWN,LEFT,340,39,False,True,True,True,False,False,LEFT,LEFT
380,110,440,80,UP,RIGHT,90,60,True,True,True,False,True,False,UP,UP
40,170,30,440,DOWN,LEFT,280,12,True,True,False,True,False,False,DOWN,DOWN
160,360,80,410,DOWN,LEFT,130,34,True,True,False,True,False,False,DOWN,DOWN
70,130,100,10,UP,RIGHT,150,10,True,True,True,False,True,False,UP,UP
100,280,10,460,DOWN,LEFT,270,25,False,True,True,True,True,False,LEFT,LEFT
340,300,280,210,UP,LEFT,150,17,False,True,True,True,False,False,LEFT,LEFT
170,80,50,250,DOWN,LEFT,290,7,True,True,True,False,True,False,UP,UP
450,340,460,440,DOWN,RIGHT,110,58,True,True,False,True,True,False,DOWN,DOWN
290,430,360,430,EQUAL,RIGHT,70,56,True,True,False,True,False,False,DOWN,RIGHT
90,330,20,330,EQUAL,LEFT,70,33,False,True,True,True,False,False,LEFT,LEFT
320,0,420,20,DOWN,RIGHT,120,4,True,False,False,True,False,False,RIGHT,RIGHT
100,170,100,50,UP,EQUAL,120,52,True,True,True,False,False,False,UP,UP
420,150,460,20,UP,RIGHT,170,18,True,False,True,True,True,False,RIGHT,RIGHT
420,30,100,370,DOWN,LEFT,660,9,True,True,False,True,False,False,DOWN,DOWN
220,230,40,240,DOWN,LEFT,190,57,False,True,True,True,True,False,LEFT,LEFT
430,150,460,20,UP,RIGHT,160,18,True,False,True,True,True,False,RIGHT,RIGHT
330,450,280,450,EQUAL,LEFT,50,47,False,True,True,True,False,False,LEFT,LEFT
30,320,290,50,UP,RIGHT,530,42,True,True,True,False,False,False,UP,UP
260,170,280,160,UP,RIGHT,30,32,False,True,True,True,False,False,LEFT,LEFT
10,460,320,270,EQUAL,EQUAL,500,26,True,True,False,True,True,False,DOWN,DOWN
160,410,220,360,UP,RIGHT,110,40,True,False,True,True,True,False,RIGHT,RIGHT
320,370,100,370,EQUAL,LEFT,220,9,False,True,True,True,True,False,LEFT,LEFT
190,310,430,320,DOWN,RIGHT,250,46,True,False,True,True,True,False,RIGHT,RIGHT
40,350,30,440,DOWN,LEFT,100,12,True,True,False,True,False,False,DOWN,DOWN
40,410,30,410,EQUAL,LEFT,10,41,False,True,True,False,True,True,LEFT,LEFT
60,260,80,410,DOWN,RIGHT,170,34,True,True,False,True,True,True,DOWN,DOWN
300,140,310,120,UP,RIGHT,30,48,True,True,True,False,False,False,UP,UP
110,310,430,320,DOWN,RIGHT,330,46,True,False,True,True,True,False,RIGHT,RIGHT
380,390,380,200,UP,EQUAL,190,59,True,True,True,False,True,True,UP,UP
240,440,350,310,UP,RIGHT,240,23,True,False,True,True,False,False,RIGHT,RIGHT
220,300,30,410,DOWN,LEFT,300,41,True,True,True,False,True,False,UP,UP
40,230,30,440,DOWN,LEFT,220,12,True,True,False,True,False,False,DOWN,DOWN
320,420,320,270,UP,EQUAL,150,26,True,True,True,False,True,False,UP,UP
330,0,420,20,DOWN,RIGHT,110,4,True,False,False,True,False,False,RIGHT,RIGHT
450,130,370,230,DOWN,LEFT,180,50,True,True,True,False,True,False,UP,UP
340,180,370,230,DOWN,RIGHT,80,50,True,True,False,True,False,False,DOWN,DOWN
450,320,460,440,DOWN,RIGHT,130,58,True,True,False,True,True,False,DOWN,DOWN
80,210,40,210,EQUAL,LEFT,40,45,False,True,True,True,True,False,LEFT,LEFT
390,220,360,430,DOWN,LEFT,240,56,True,True,False,True,False,False,DOWN,DOWN
220,290,30,410,DOWN,LEFT,310,41,True,True,True,False,True,False,UP,UP
270,360,100,50,UP,LEFT,480,52,False,True,True,True,False,False,LEFT,LEFT
170,210,40,210,EQUAL,LEFT,130,45,False,True,True,True,True,False,LEFT,LEFT
420,70,340,300,DOWN,LEFT,310,5,True,True,False,True,False,False,DOWN,DOWN
270,470,320,270,UP,RIGHT,250,26,True,False,True,False,True,False,RIGHT,RIGHT
30,190,460,440,DOWN,RIGHT,680,58,True,False,True,True,True,False,RIGHT,RIGHT
230,150,280,160,DOWN,RIGHT,60,32,True,False,True,True,True,True,RIGHT,DOWN
320,120,120,50,UP,LEFT,270,27,True,True,True,False,True,False,UP,UP
390,280,390,260,UP,EQUAL,20,38,True,True,True,False,False,False,UP,UP
60,170,60,180,DOWN,EQUAL,10,14,True,True,False,True,True,False,DOWN,DOWN
390,330,390,260,UP,EQUAL,70,38,True,True,True,False,False,False,UP,UP
180,170,280,160,UP,RIGHT,110,32,False,True,True,True,False,False,LEFT,LEFT
230,360,100,50,UP,LEFT,440,52,False,True,True,True,False,False,LEFT,LEFT
100,310,430,320,DOWN,RIGHT,340,46,True,False,True,True,True,False,RIGHT,RIGHT
150,440,350,310,UP,RIGHT,330,23,True,False,True,True,False,False,RIGHT,RIGHT
110,290,100,50,UP,LEFT,250,52,True,True,True,False,True,False,UP,UP
160,370,80,410,DOWN,LEFT,120,34,True,True,False,True,False,False,DOWN,DOWN
190,190,460,190,EQUAL,EQUAL,270,20,True,True,False,True,False,False,DOWN,DOWN
90,80,180,80,EQUAL,RIGHT,90,11,True,False,True,True,True,False,RIGHT,RIGHT
320,230,20,330,DOWN,LEFT,400,33,True,True,False,True,False,False,DOWN,DOWN
120,80,100,10,UP,LEFT,90,10,True,True,False,True,True,False,DOWN,DOWN
140,150,280,160,DOWN,RIGHT,150,32,True,False,True,True,True,True,RIGHT,RIGHT
390,330,440,370,DOWN,RIGHT,90,37,True,False,True,True,False,False,RIGHT,RIGHT
60,130,60,180,DOWN,EQUAL,50,14,True,True,False,True,True,False,DOWN,DOWN
210,80,30,440,DOWN,LEFT,540,12,True,False,True,True,True,False,RIGHT,RIGHT
190,440,350,310,UP,RIGHT,290,23,True,False,True,True,False,False,RIGHT,RIGHT
350,260,150,260,EQUAL,LEFT,200,21,False,True,True,True,False,False,LEFT,LEFT
270,190,460,440,DOWN,RIGHT,440,58,True,False,True,True,True,False,RIGHT,RIGHT
20,280,30,410,DOWN,RIGHT,140,41,False,True,True,True,True,False,LEFT,DOWN
310,50,390,80,DOWN,RIGHT,110,55,True,False,True,True,False,False,RIGHT,RIGHT
270,300,40,210,UP,LEFT,320,45,True,True,True,False,False,False,UP,UP
390,280,360,430,DOWN,LEFT,180,56,True,True,False,True,False,False,DOWN,DOWN
50,410,210,440,DOWN,RIGHT,190,44,True,True,True,False,True,False,UP,UP
270,400,40,210,UP,LEFT,420,45,True,True,True,False,False,False,UP,UP
420,30,340,300,DOWN,LEFT,350,5,True,True,False,True,False,False,DOWN,DOWN
430,10,190,190,DOWN,LEFT,420,19,False,True,True,True,False,False,LEFT,LEFT
190,390,210,440,DOWN,RIGHT,70,44,True,True,False,True,True,False,DOWN,DOWN
280,260,150,260,EQUAL,LEFT,130,21,False,True,True,True,False,False,LEFT,LEFT
50,310,210,440,DOWN,RIGHT,290,44,True,True,True,False,True,False,UP,UP
20,230,460,440,DOWN,RIGHT,650,58,True,True,True,False,False,False,UP,UP
40,190,30,440,DOWN,LEFT,260,12,True,True,False,True,False,False,DOWN,DOWN
140,320,80,410,DOWN,LEFT,150,34,True,False,True,True,False,False,RIGHT,RIGHT
250,10,190,190,DOWN,LEFT,240,19,False,True,True,True,False,False,LEFT,LEFT
160,390,390,80,UP,RIGHT,540,55,True,True,True,False,False,False,UP,UP
340,230,170,100,UP,LEFT,300,6,True,True,True,False,True,False,UP,UP
190,0,130,10,DOWN,LEFT,70,3,True,True,False,False,False,False,UP,LEFT
210,230,40,240,DOWN,LEFT,180,57,False,True,True,True,True,False,LEFT,LEFT
390,50,390,80,DOWN,EQUAL,30,55,True,False,True,True,False,False,RIGHT,DOWN
280,10,190,190,DOWN,LEFT,270,19,False,True,True,True,False,False,LEFT,LEFT
160,80,160,420,DOWN,EQUAL,340,43,True,True,False,True,True,False,DOWN,DOWN
100,330,20,330,EQUAL,LEFT,80,33,False,True,True,True,False,False,LEFT,LEFT
40,350,40,400,DOWN,EQUAL,50,39,True,True,False,True,True,False,DOWN,DOWN
270,380,300,330,EQUAL,EQUAL,80,36,True,True,True,False,True,False,UP,UP
200,40,280,160,DOWN,RIGHT,200,32,True,False,True,True,True,False,RIGHT,RIGHT
290,260,150,260,EQUAL,LEFT,140,21,False,True,True,True,False,False,LEFT,LEFT
450,140,120,80,UP,LEFT,390,61,True,True,False,True,True,True,DOWN,DOWN
310,190,460,440,DOWN,RIGHT,400,58,True,False,True,True,True,False,RIGHT,RIGHT
180,90,170,100,DOWN,LEFT,20,6,False,True,True,True,False,False,LEFT,LEFT
350,210,40,400,DOWN,LEFT,500,39,False,True,True,True,False,False,LEFT,LEFT
190,50,130,10,UP,LEFT,100,3,True,False,True,True,False,False,RIGHT,UP
130,450,270,380,UP,RIGHT,210,35,True,False,True,True,False,False,RIGHT,RIGHT
370,330,440,370,DOWN,RIGHT,110,37,True,False,True,True,False,False,RIGHT,RIGHT
290,450,280,450,EQUAL,LEFT,10,47,False,True,True,True,False,False,LEFT,LEFT
160,40,280,160,DOWN,RIGHT,240,32,True,False,True,True,True,False,RIGHT,RIGHT
120,110,120,70,UP,EQUAL,40,31,True,True,True,False,True,False,UP,UP
360,210,40,400,DOWN,LEFT,510,39,False,True,True,True,False,False,LEFT,LEFT
70,150,100,10,UP,RIGHT,170,10,True,True,True,False,True,False,UP,UP
170,420,210,440,DOWN,RIGHT,60,44,True,False,True,True,False,False,RIGHT,RIGHT
450,210,120,80,UP,LEFT,460,61,True,True,False,True,True,False,DOWN,DOWN
30,360,290,50,UP,RIGHT,570,42,True,False,True,False,False,False,UP,UP
110,280,30,410,DOWN,LEFT,210,41,False,True,True,True,True,False,LEFT,LEFT
270,290,40,210,UP,LEFT,310,45,True,True,True,False,False,False,UP,UP
160,100,170,100,EQUAL,RIGHT,10,6,True,True,False,True,False,False,DOWN,DOWN
240,370,100,370,EQUAL,LEFT,140,9,False,True,True,True,True,False,LEFT,LEFT
90,410,220,360,UP,RIGHT,180,40,True,False,True,True,True,False,RIGHT,RIGHT
50,330,20,330,EQUAL,LEFT,30,33,False,True,True,True,False,False,LEFT,LEFT
70,190,460,440,DOWN,RIGHT,640,58,True,False,True,True,True,False,RIGHT,RIGHT
330,420,360,430,DOWN,RIGHT,40,56,False,True,True,True,True,False,LEFT,LEFT
130,210,40,210,EQUAL,LEFT,90,45,False,True,True,True,True,False,LEFT,LEFT
290,160,280,160,EQUAL,LEFT,10,32,True,True,False,True,False,False,DOWN,DOWN
320,70,120,50,UP,LEFT,220,27,True,True,True,False,True,False,UP,UP
70,120,30,440,DOWN,LEFT,360,12,False,True,True,True,False,False,LEFT,LEFT
30,400,290,50,UP,RIGHT,610,42,True,False,True,False,False,False,UP,UP
120,40,280,160,DOWN,RIGHT,280,32,True,True,True,False,True,False,UP,RIGHT
20,210,460,440,DOWN,RIGHT,670,58,True,True,True,False,False,False,UP,UP
250,360,100,50,UP,LEFT,460,52,False,True,True,True,False,False,LEFT,LEFT
200,170,280,160,UP,RIGHT,90,32,False,True,True,True,False,False,LEFT,LEFT
100,410,30,410,EQUAL,LEFT,70,41,False,True,True,False,True,True,LEFT,LEFT
10,310,10,460,DOWN,EQUAL,150,25,True,True,False,True,True,False,DOWN,DOWN
170,280,30,410,DOWN,LEFT,270,41,False,True,True,True,True,False,LEFT,LEFT
160,380,390,80,UP,RIGHT,530,55,True,True,True,False,False,False,UP,UP
380,20,400,20,EQUAL,RIGHT,20,8,True,False,True,True,False,False,RIGHT,RIGHT
270,420,270,380,UP,EQUAL,40,35,True,True,True,False,True,False,UP,UP
10,50,220,70,DOWN,RIGHT,230,29,True,True,True,False,False,False,UP,UP
40,290,40,400,DOWN,EQUAL,110,39,True,True,False,True,True,False,DOWN,DOWN
70,40,100,10,UP,RIGHT,60,10,True,True,True,False,True,False,UP,UP
460,220,120,80,UP,LEFT,480,61,True,False,True,False,False,False,UP,RIGHT
430,430,280,450,DOWN,LEFT,170,47,True,True,False,True,False,False,DOWN,DOWN
140,260,110,440,DOWN,LEFT,210,22,False,True,True,True,False,False,LEFT,LEFT
410,150,460,20,UP,RIGHT,180,18,True,False,True,True,True,False,RIGHT,RIGHT
340,100,370,230,DOWN,RIGHT,160,50,True,False,False,True,True,True,RIGHT,RIGHT
320,100,120,50,UP,LEFT,250,27,True,True,True,False,True,False,UP,UP
430,330,280,450,DOWN,LEFT,270,47,True,True,False,True,False,False,DOWN,DOWN
340,440,350,310,UP,RIGHT,140,23,True,False,True,True,False,False,RIGHT,RIGHT
50,420,30,410,UP,LEFT,30,41,True,False,True,True,True,False,RIGHT,RIGHT
100,80,100,50,UP,EQUAL,30,52,True,True,True,False,False,False,UP,UP
320,300,20,330,DOWN,LEFT,330,33,True,True,False,True,False,False,DOWN,DOWN
80,190,460,440,DOWN,RIGHT,630,58,True,False,True,True,True,False,RIGHT,RIGHT
320,340,310,120,UP,LEFT,230,48,True,True,True,False,False,False,UP,UP
60,50,220,70,DOWN,RIGHT,180,29,True,True,False,True,True,False,DOWN,DOWN
220,0,420,20,DOWN,RIGHT,220,4,True,False,False,True,False,False,RIGHT,RIGHT
10,270,80,410,DOWN,RIGHT,210,34,True,True,True,False,True,False,UP,UP
290,370,100,370,EQUAL,LEFT,190,9,False,True,True,True,True,False,LEFT,LEFT
330,30,400,20,UP,RIGHT,80,8,True,False,True,True,False,False,RIGHT,RIGHT
200,60,50,250,DOWN,LEFT,340,7,True,False,True,True,False,False,RIGHT,DOWN
230,230,40,240,DOWN,LEFT,200,57,False,True,True,True,True,False,LEFT,LEFT
100,280,30,410,DOWN,LEFT,200,41,False,True,True,True,True,False,LEFT,LEFT
160,180,390,80,UP,RIGHT,330,55,True,True,True,False,False,False,UP,UP
450,300,460,440,DOWN,RIGHT,150,58,True,True,False,True,True,False,DOWN,DOWN
320,320,320,270,UP,EQUAL,50,26,True,True,True,False,True,False,UP,UP
180,250,180,360,DOWN,EQUAL,110,53,True,True,False,True,True,False,DOWN,DOWN
200,140,260,150,DOWN,RIGHT,70,15,True,False,True,True,False,False,RIGHT,RIGHT
100,400,130,70,UP,RIGHT,360,13,True,True,True,False,True,False,UP,UP
220,260,150,260,EQUAL,LEFT,70,21,False,True,True,True,False,False,LEFT,LEFT
50,440,210,440,EQUAL,RIGHT,160,44,True,True,True,False,True,False,UP,UP
420,290,100,370,DOWN,LEFT,400,9,True,True,False,True,False,False,DOWN,DOWN
310,210,40,400,DOWN,LEFT,460,39,False,True,True,True,False,False,LEFT,LEFT
350,360,350,310,UP,EQUAL,50,23,True,True,True,False,True,False,UP,UP
30,30,220,70,DOWN,RIGHT,230,29,True,False,True,True,True,False,RIGHT,RIGHT
370,160,370,230,DOWN,EQUAL,70,50,True,True,False,True,False,False,DOWN,DOWN
310,150,460,20,UP,RIGHT,280,18,True,False,True,True,True,False,RIGHT,RIGHT
180,310,430,320,DOWN,RIGHT,260,46,True,False,True,True,True,False,RIGHT,RIGHT
120,20,130,10,UP,RIGHT,20,3,True,True,False,True,True,False,DOWN,DOWN
370,210,370,230,DOWN,EQUAL,20,50,True,True,False,True,False,False,DOWN,DOWN
260,360,100,50,UP,LEFT,470,52,False,True,True,True,False,False,LEFT,LEFT
410,370,100,370,EQUAL,LEFT,310,9,False,True,True,True,True,False,LEFT,LEFT
320,130,120,50,UP,LEFT,280,27,True,True,True,False,True,False,UP,UP
30,420,30,410,UP,EQUAL,10,41,True,False,True,True,True,False,RIGHT,RIGHT
200,160,50,250,DOWN,LEFT,240,7,True,True,False,True,False,False,DOWN,DOWN
130,420,30,410,UP,LEFT,110,41,True,False,True,True,True,False,RIGHT,RIGHT
450,200,370,230,DOWN,LEFT,110,50,True,True,True,False,True,False,UP,UP
450,200,120,80,UP,LEFT,450,61,True,True,False,True,True,False,DOWN,DOWN
20,360,30,410,DOWN,RIGHT,60,41,True,True,False,True,True,False,DOWN,DOWN
80,470,320,270,UP,RIGHT,440,26,True,False,True,False,True,False,RIGHT,RIGHT
40,220,80,410,DOWN,RIGHT,230,34,True,False,True,True,True,False,RIGHT,RIGHT
400,230,460,190,UP,RIGHT,100,20,True,False,True,True,False,False,RIGHT,RIGHT
390,220,390,170,UP,EQUAL,50,49,False,True,True,True,False,True,LEFT,UP
50,30,220,70,DOWN,RIGHT,210,29,True,False,True,True,True,False,RIGHT,RIGHT
320,260,120,50,UP,LEFT,410,27,True,True,True,False,True,False,UP,UP
160,250,390,80,UP,RIGHT,400,55,True,True,True,False,False,False,UP,UP
220,120,120,70,UP,LEFT,150,31,False,True,True,True,False,False,LEFT,LEFT
420,40,100,370,DOWN,LEFT,650,9,True,True,False,True,False,False,DOWN,DOWN
280,280,280,210,UP,EQUAL,70,17,True,True,True,False,True,False,UP,UP
240,310,430,320,DOWN,RIGHT,200,46,True,False,True,True,True,False,RIGHT,RIGHT
350,350,390,260,UP,RIGHT,130,38,True,False,True,True,True,True,RIGHT,RIGHT
450,140,370,230,DOWN,LEFT,170,50,True,True,True,False,True,False,UP,UP
80,280,80,410,DOWN,EQUAL,130,34,True,True,False,True,False,True,DOWN,DOWN
120,220,130,70,UP,RIGHT,160,13,True,True,True,False,False,False,UP,RIGHT
310,430,390,260,UP,RIGHT,250,38,False,True,True,True,True,False,LEFT,LEFT
350,130,390,170,DOWN,RIGHT,80,49,True,False,True,True,False,False,RIGHT,RIGHT
190,40,280,160,DOWN,RIGHT,210,32,True,False,True,True,True,False,RIGHT,RIGHT
10,100,220,70,UP,RIGHT,240,29,False,True,True,False,False,False,UP,UP
300,150,310,120,UP,RIGHT,40,48,False,True,True,True,False,False,LEFT,UP
280,330,300,330,EQUAL,RIGHT,20,36,True,False,True,True,False,False,RIGHT,RIGHT
270,220,40,210,UP,LEFT,240,45,True,True,True,False,False,False,UP,UP
170,30,400,20,UP,RIGHT,240,8,True,False,True,True,True,False,RIGHT,RIGHT
320,180,310,120,UP,LEFT,70,48,True,True,True,False,False,False,UP,UP
340,450,280,450,EQUAL,LEFT,60,47,False,True,True,True,False,False,LEFT,LEFT
380,440,380,200,UP,EQUAL,240,59,True,True,True,False,True,True,UP,UP
100,70,100,50,UP,EQUAL,20,52,True,True,True,False,False,False,UP,UP
380,310,340,300,UP,LEFT,50,5,False,True,True,True,True,False,LEFT,LEFT
160,110,390,80,UP,RIGHT,260,55,True,True,True,False,False,False,UP,UP
120,80,120,70,UP,EQUAL,10,31,True,True,True,False,True,False,UP,UP
180,260,150,260,EQUAL,LEFT,30,21,False,True,True,True,False,False,LEFT,LEFT
10,140,10,110,UP,EQUAL,30,28,False,True,True,False,False,False,UP,UP
460,190,150,260,EQUAL,EQUAL,380,21,True,True,True,False,False,False,UP,UP
340,220,170,100,UP,LEFT,290,6,True,True,True,False,True,False,UP,UP
350,230,40,240,DOWN,LEFT,320,57,False,True,True,True,True,False,LEFT,LEFT
250,280,180,280,EQUAL,LEFT,70,24,False,True,True,True,True,False,LEFT,LEFT
110,200,100,50,UP,LEFT,160,52,True,True,True,False,True,False,UP,UP
450,250,460,440,DOWN,RIGHT,200,58,True,True,False,True,True,False,DOWN,DOWN
300,130,310,120,UP,RIGHT,20,48,True,True,True,False,False,False,UP,UP
380,430,390,260,UP,RIGHT,180,38,False,True,True,True,True,False,LEFT,LEFT
340,110,170,100,UP,LEFT,180,6,True,True,True,False,True,False,UP,UP
260,190,460,440,DOWN,RIGHT,450,58,True,False,True,True,True,False,RIGHT,RIGHT
60,210,260,150,UP,RIGHT,260,15,True,True,False,True,True,False,DOWN,DOWN
70,80,180,80,EQUAL,RIGHT,110,11,True,True,False,True,False,False,DOWN,RIGHT
20,140,10,110,UP,LEFT,40,28,True,True,False,True,False,False,DOWN,DOWN
160,300,390,80,UP,RIGHT,450,55,True,True,True,False,False,False,UP,UP
120,450,210,440,UP,RIGHT,100,44,False,True,True,True,False,False,LEFT,LEFT
190,60,50,250,DOWN,LEFT,330,7,True,False,True,True,False,False,RIGHT,RIGHT
460,70,460,20,UP,EQUAL,50,18,True,True,True,False,False,False,UP,UP
10,250,80,410,DOWN,RIGHT,230,34,True,True,True,False,True,False,UP,UP
110,270,100,50,UP,LEFT,230,52,True,True,True,False,True,False,UP,UP
100,190,100,50,UP,EQUAL,140,52,False,True,True,True,False,False,LEFT,UP
150,0,420,20,DOWN,RIGHT,290,4,True,False,False,True,False,False,RIGHT,RIGHT
190,10,190,190,DOWN,EQUAL,180,19,False,True,True,True,False,False,LEFT,LEFT
60,40,220,70,DOWN,RIGHT,190,29,True,True,False,True,True,False,DOWN,DOWN
300,370,100,370,EQUAL,LEFT,200,9,False,True,True,True,True,False,LEFT,LEFT
160,130,160,420,DOWN,EQUAL,290,43,True,True,False,True,True,False,DOWN,LEFT
370,190,370,230,DOWN,EQUAL,40,50,True,True,False,True,False,False,DOWN,DOWN
120,70,280,160,EQUAL,EQUAL,250,32,True,True,True,False,True,False,UP,UP
90,450,270,380,UP,RIGHT,250,35,True,False,True,True,False,False,RIGHT,RIGHT
100,360,130,70,UP,RIGHT,320,13,True,True,True,False,True,False,UP,UP
380,260,150,260,EQUAL,LEFT,230,21,True,True,False,True,True,False,DOWN,LEFT
340,370,100,370,EQUAL,LEFT,240,9,False,True,True,True,True,False,LEFT,LEFT
110,340,100,50,UP,LEFT,300,52,True,True,True,False,True,False,UP,UP
90,60,10,110,DOWN,LEFT,130,28,True,True,False,True,False,False,DOWN,DOWN
160,140,390,80,UP,RIGHT,290,55,True,True,True,False,False,False,UP,UP
300,150,460,20,UP,RIGHT,290,18,True,False,True,True,True,False,RIGHT,RIGHT
110,50,130,10,UP,RIGHT,60,3,True,False,True,True,False,False,RIGHT,RIGHT
210,470,320,270,UP,RIGHT,310,26,True,False,True,False,True,False,RIGHT,RIGHT
50,320,210,440,DOWN,RIGHT,280,44,True,True,True,False,True,False,UP,UP
230,310,430,320,DOWN,RIGHT,210,46,True,False,True,True,True,False,RIGHT,RIGHT
190,40,130,10,UP,LEFT,90,3,True,True,True,False,False,False,UP,UP
220,280,30,410,DOWN,LEFT,320,41,True,True,True,False,True,False,UP,LEFT
280,470,320,270,UP,RIGHT,240,26,True,False,True,False,True,False,RIGHT,RIGHT
420,220,340,300,DOWN,LEFT,160,5,True,True,False,True,False,False,DOWN,DOWN
130,310,430,320,DOWN,RIGHT,310,46,True,False,True,True,True,False,RIGHT,RIGHT
120,350,110,440,DOWN,LEFT,100,22,True,True,False,True,False,False,DOWN,DOWN
70,310,430,320,DOWN,RIGHT,370,46,True,False,True,True,True,False,RIGHT,RIGHT
250,260,150,260,EQUAL,LEFT,100,21,False,True,True,True,False,False,LEFT,LEFT
330,350,390,260,UP,RIGHT,150,38,True,False,True,True,True,True,RIGHT,RIGHT
320,200,20,330,DOWN,LEFT,430,33,True,True,False,True,False,False,DOWN,DOWN
200,70,220,70,EQUAL,RIGHT,20,29,True,False,True,True,False,False,RIGHT,RIGHT
120,160,280,160,EQUAL,RIGHT,160,32,True,True,True,False,True,False,UP,UP
280,210,460,20,EQUAL,EQUAL,370,18,True,True,True,False,True,False,UP,UP
210,140,260,150,DOWN,RIGHT,60,15,True,False,True,True,False,False,RIGHT,RIGHT
210,360,100,50,UP,LEFT,420,52,False,True,True,True,False,False,LEFT,LEFT
270,260,150,260,EQUAL,LEFT,120,21,False,True,True,True,False,False,LEFT,LEFT
60,270,80,410,DOWN,RIGHT,160,34,True,True,False,True,True,False,DOWN,RIGHT
140,200,160,420,DOWN,RIGHT,240,43,True,True,False,True,False,False,DOWN,DOWN
390,150,460,20,UP,RIGHT,200,18,True,False,True,True,True,False,RIGHT,RIGHT
80,300,210,440,DOWN,RIGHT,270,44,True,False,True,True,True,False,RIGHT,RIGHT
460,50,460,20,UP,EQUAL,30,18,True,True,True,False,False,False,UP,UP
120,50,130,10,UP,RIGHT,50,3,True,False,True,True,False,False,RIGHT,RIGHT
250,230,40,240,DOWN,LEFT,220,57,False,True,True,True,True,False,LEFT,LEFT
150,190,460,440,DOWN,RIGHT,560,58,True,False,True,True,True,False,RIGHT,RIGHT
270,90,280,160,DOWN,RIGHT,80,32,True,True,False,True,True,False,DOWN,DOWN
440,90,370,230,DOWN,LEFT,210,50,False,True,True,True,True,False,LEFT,LEFT
30,330,20,330,EQUAL,LEFT,10,33,False,True,True,True,False,False,LEFT,LEFT
390,80,440,80,EQUAL,RIGHT,50,60,True,False,True,True,True,False,RIGHT,RIGHT
170,360,100,50,UP,LEFT,380,52,False,True,True,True,False,False,LEFT,LEFT
70,410,30,410,EQUAL,LEFT,40,41,False,True,True,False,True,True,LEFT,LEFT
160,70,220,70,EQUAL,RIGHT,60,29,True,False,True,True,False,False,RIGHT,RIGHT
340,230,40,240,DOWN,LEFT,310,57,False,True,True,True,True,False,LEFT,LEFT
430,350,40,240,UP,LEFT,500,57,True,True,True,False,True,False,UP,UP
210,170,280,160,UP,RIGHT,80,32,False,True,True,True,False,False,LEFT,LEFT
380,310,380,200,UP,EQUAL,110,59,True,True,True,False,True,True,UP,UP
270,30,400,20,UP,RIGHT,140,8,True,True,False,True,False,False,DOWN,RIGHT
280,200,460,20,UP,RIGHT,360,18,True,True,True,False,True,False,UP,UP
370,170,370,230,DOWN,EQUAL,60,50,True,True,False,True,False,False,DOWN,DOWN
340,420,360,430,DOWN,RIGHT,30,56,False,True,True,True,True,False,LEFT,LEFT
330,260,150,260,EQUAL,LEFT,180,21,False,True,True,True,False,False,LEFT,LEFT
230,450,270,380,UP,RIGHT,110,35,True,False,True,True,False,False,RIGHT,RIGHT
110,310,100,50,UP,LEFT,270,52,True,True,True,False,True,False,UP,UP
170,120,120,70,UP,LEFT,100,31,False,True,True,True,False,False,LEFT,LEFT
120,40,130,10,UP,RIGHT,40,3,True,True,False,True,True,False,DOWN,DOWN
450,150,460,20,UP,RIGHT,140,18,True,False,True,True,True,False,RIGHT,RIGHT
70,330,100,10,UP,RIGHT,350,10,True,True,True,False,True,False,UP,UP
290,380,390,260,UP,RIGHT,220,38,True,True,True,False,True,False,UP,UP
50,340,210,440,DOWN,RIGHT,260,44,True,True,True,False,True,False,UP,UP
230,120,120,70,UP,LEFT,160,31,False,True,True,True,False,False,LEFT,LEFT
400,190,460,440,DOWN,RIGHT,310,58,True,False,True,True,True,False,RIGHT,RIGHT
450,240,450,270,DOWN,EQUAL,30,16,True,True,False,True,False,False,DOWN,DOWN
360,100,370,230,DOWN,RIGHT,140,50,True,False,False,True,True,True,RIGHT,RIGHT
290,150,450,270,DOWN,RIGHT,280,16,True,False,True,True,False,False,RIGHT,RIGHT
50,210,400,20,UP,RIGHT,540,8,True,True,True,False,True,False,UP,UP
40,300,40,400,DOWN,EQUAL,100,39,True,True,False,True,True,False,DOWN,DOWN
290,150,290,50,UP,EQUAL,100,42,True,True,True,False,False,False,UP,UP
220,360,30,410,EQUAL,EQUAL,240,41,True,True,True,False,True,False,UP,UP
70,300,290,50,UP,RIGHT,470,42,True,False,True,True,False,False,RIGHT,RIGHT
170,50,120,50,EQUAL,LEFT,50,27,True,True,False,True,True,False,DOWN,LEFT
390,230,460,190,UP,RIGHT,110,20,True,False,True,True,False,False,RIGHT,RIGHT
70,340,100,10,UP,RIGHT,360,10,True,True,True,False,True,False,UP,UP
70,40,180,80,DOWN,RIGHT,150,11,True,True,False,True,False,False,DOWN,DOWN
320,330,320,270,UP,EQUAL,60,26,True,True,True,False,True,False,UP,UP
100,50,10,110,DOWN,LEFT,150,28,False,True,True,True,False,False,LEFT,LEFT
160,160,170,100,UP,RIGHT,70,6,True,True,False,True,False,False,DOWN,RIGHT
180,100,190,190,DOWN,RIGHT,100,19,True,True,False,True,True,False,DOWN,DOWN
250,10,400,20,DOWN,RIGHT,160,8,True,False,True,True,False,False,RIGHT,RIGHT
320,230,120,50,UP,LEFT,380,27,True,True,True,False,True,False,UP,UP
170,260,150,260,EQUAL,LEFT,20,21,False,True,True,True,False,False,LEFT,LEFT
150,330,160,420,DOWN,RIGHT,100,43,True,True,False,True,False,False,DOWN,DOWN
420,430,40,240,UP,LEFT,570,57,True,False,True,True,False,False,RIGHT,RIGHT
340,280,180,280,EQUAL,LEFT,160,24,False,True,True,True,True,False,LEFT,LEFT
380,160,150,260,DOWN,LEFT,330,21,False,True,True,True,True,False,LEFT,DOWN
290,130,280,160,DOWN,LEFT,40,32,True,True,False,True,False,False,DOWN,DOWN
450,150,120,80,UP,LEFT,400,61,True,True,False,True,True,True,DOWN,DOWN
330,230,40,240,DOWN,LEFT,300,57,False,True,True,True,True,False,LEFT,LEFT
380,370,380,200,UP,EQUAL,170,59,True,True,True,False,True,True,UP,UP
120,40,100,10,UP,LEFT,50,10,True,True,False,True,True,False,DOWN,DOWN
240,40,280,160,DOWN,RIGHT,160,32,True,False,True,True,True,False,RIGHT,RIGHT
40,270,40,400,DOWN,EQUAL,130,39,True,True,False,True,True,False,DOWN,DOWN
390,250,360,430,DOWN,LEFT,210,56,True,True,False,True,False,False,DOWN,DOWN
320,450,280,450,EQUAL,LEFT,40,47,False,True,True,True,False,False,LEFT,LEFT
180,420,160,410,UP,LEFT,30,54,True,True,False,True,True,False,DOWN,LEFT
50,150,400,20,UP,RIGHT,480,8,True,True,True,False,True,False,UP,UP
450,230,460,190,UP,RIGHT,50,20,True,False,True,True,False,False,RIGHT,RIGHT
240,330,20,330,EQUAL,LEFT,220,33,False,True,True,True,False,False,LEFT,LEFT
110,440,350,310,EQUAL,EQUAL,370,23,True,False,True,True,False,False,RIGHT,RIGHT
220,230,460,190,UP,RIGHT,280,20,True,False,True,True,False,False,RIGHT,RIGHT
20,150,10,110,UP,LEFT,50,28,True,True,False,True,False,False,DOWN,DOWN
190,450,210,440,UP,RIGHT,30,44,False,True,True,True,False,False,LEFT,LEFT
250,210,40,210,EQUAL,LEFT,210,45,False,True,True,True,True,False,LEFT,LEFT
320,50,120,50,EQUAL,LEFT,200,27,True,True,True,False,True,False,UP,UP
80,260,50,250,UP,LEFT,40,7,False,True,True,True,True,False,LEFT,LEFT
290,210,290,50,UP,EQUAL,160,42,True,True,True,False,False,False,UP,UP
270,80,280,160,DOWN,RIGHT,90,32,True,True,False,True,True,False,DOWN,DOWN
120,390,80,410,DOWN,LEFT,60,34,False,True,True,True,False,False,LEFT,LEFT
360,130,390,170,DOWN,RIGHT,70,49,True,False,True,True,False,False,RIGHT,RIGHT
180,60,190,190,DOWN,RIGHT,140,19,True,True,False,True,True,False,DOWN,DOWN
290,330,300,330,EQUAL,RIGHT,10,36,True,False,True,True,False,False,RIGHT,RIGHT
450,260,460,440,DOWN,RIGHT,190,58,True,True,False,True,True,False,DOWN,DOWN
130,400,160,410,DOWN,RIGHT,40,54,True,False,True,True,True,True,RIGHT,RIGHT
320,350,310,120,UP,LEFT,240,48,True,True,True,False,False,False,UP,UP
100,300,210,440,DOWN,RIGHT,250,44,True,False,True,True,True,False,RIGHT,RIGHT
420,100,100,370,DOWN,LEFT,590,9,True,True,False,True,False,False,DOWN,DOWN
420,240,340,300,DOWN,LEFT,140,5,True,True,False,True,False,False,DOWN,DOWN
60,420,30,410,UP,LEFT,40,41,True,False,True,True,True,False,RIGHT,RIGHT
130,330,20,330,EQUAL,LEFT,110,33,False,True,True,True,False,False,LEFT,LEFT
340,190,460,440,DOWN,RIGHT,370,58,True,False,True,True,True,False,RIGHT,RIGHT
30,340,290,50,UP,RIGHT,550,42,True,False,True,False,False,False,UP,UP
200,200,50,250,DOWN,LEFT,200,7,True,True,False,True,False,False,DOWN,DOWN
30,420,30,440,DOWN,EQUAL,20,12,True,True,False,True,False,False,DOWN,DOWN
200,170,50,250,DOWN,LEFT,230,7,True,True,False,True,False,False,DOWN,DOWN
300,120,310,120,EQUAL,RIGHT,10,48,True,True,True,False,False,False,UP,UP
30,470,320,270,UP,RIGHT,490,26,True,False,True,False,True,False,RIGHT,RIGHT
200,240,50,250,DOWN,LEFT,160,7,True,True,False,True,False,False,DOWN,DOWN
140,80,180,80,EQUAL,RIGHT,40,11,True,False,True,True,True,False,RIGHT,RIGHT
330,130,390,170,DOWN,RIGHT,100,49,True,False,True,True,False,False,RIGHT,RIGHT
380,160,370,230,DOWN,LEFT,80,50,False,True,True,True,False,True,LEFT,LEFT
420,10,420,20,DOWN,EQUAL,10,4,True,True,False,True,False,False,DOWN,DOWN
130,440,350,310,UP,RIGHT,350,23,True,False,True,True,False,False,RIGHT,RIGHT
100,300,130,70,UP,RIGHT,260,13,True,True,True,False,True,False,UP,RIGHT
450,180,370,230,DOWN,LEFT,130,50,True,True,True,False,True,False,UP,UP
320,400,310,120,UP,LEFT,290,48,True,True,True,False,False,False,UP,UP
20,120,10,110,UP,LEFT,20,28,True,True,False,True,False,False,DOWN,DOWN
200,280,30,410,DOWN,LEFT,300,41,False,True,True,True,True,False,LEFT,LEFT
320,430,320,270,UP,EQUAL,160,26,True,True,True,False,True,False,UP,UP
190,440,210,440,EQUAL,RIGHT,20,44,True,True,False,True,True,False,DOWN,RIGHT
350,330,440,370,DOWN,RIGHT,130,37,True,False,True,True,False,False,RIGHT,RIGHT
90,300,210,440,DOWN,RIGHT,260,44,True,False,True,True,True,False,RIGHT,RIGHT
430,250,40,240,UP,LEFT,400,57,True,True,True,False,True,False,UP,UP
260,70,270,120,DOWN,RIGHT,60,30,True,False,True,True,False,False,RIGHT,RIGHT
110,400,160,410,DOWN,RIGHT,60,54,True,False,True,True,True,True,RIGHT,RIGHT
460,200,460,190,UP,EQUAL,10,20,True,True,True,False,False,False,UP,UP
170,30,160,420,DOWN,LEFT,400,43,False,True,True,True,False,False,LEFT,LEFT
110,470,320,270,UP,RIGHT,410,26,True,False,True,False,True,False,RIGHT,RIGHT
20,190,460,440,DOWN,RIGHT,690,58,True,True,True,False,False,False,UP,RIGHT
300,100,370,230,DOWN,RIGHT,200,50,True,False,False,True,True,True,RIGHT,RIGHT
80,300,80,410,DOWN,EQUAL,110,34,True,True,False,True,False,True,DOWN,DOWN
180,40,190,190,DOWN,RIGHT,160,19,True,True,False,True,True,False,DOWN,DOWN
100,450,270,380,UP,RIGHT,240,35,True,False,True,True,False,False,RIGHT,RIGHT
270,90,170,100,DOWN,LEFT,110,6,False,True,True,True,False,False,LEFT,LEFT
270,50,390,80,DOWN,RIGHT,150,55,True,False,True,True,False,False,RIGHT,RIGHT
100,400,110,440,DOWN,RIGHT,50,22,True,True,False,True,False,False,DOWN,DOWN
10,360,10,460,DOWN,EQUAL,100,25,True,True,False,True,True,False,DOWN,DOWN
350,10,190,190,DOWN,LEFT,340,19,False,True,True,True,False,False,LEFT,LEFT
370,240,370,330,DOWN,EQUAL,90,51,True,True,False,True,False,False,DOWN,DOWN
70,20,100,10,UP,RIGHT,40,10,True,True,True,False,True,False,UP,UP
260,40,280,160,DOWN,RIGHT,140,32,True,False,True,True,True,False,RIGHT,RIGHT
380,250,380,200,UP,EQUAL,50,59,True,True,True,False,True,False,UP,UP
140,140,160,420,DOWN,RIGHT,300,43,True,True,False,True,False,False,DOWN,DOWN
240,30,160,420,DOWN,LEFT,470,43,False,True,True,True,False,False,LEFT,LEFT
300,60,310,120,DOWN,RIGHT,70,48,True,True,True,False,False,False,UP,UP
170,110,170,100,UP,EQUAL,10,6,True,True,True,False,True,False,UP,UP
340,250,170,100,UP,LEFT,320,6,True,True,True,False,True,False,UP,UP
110,390,80,410,DOWN,LEFT,50,34,False,True,True,True,False,False,LEFT,LEFT
430,360,40,240,UP,LEFT,510,57,True,True,True,False,True,False,UP,UP
180,0,130,10,DOWN,LEFT,60,3,False,True,False,True,False,False,LEFT,LEFT
130,80,130,10,UP,EQUAL,70,3,True,False,True,True,True,False,RIGHT,UP
70,330,20,330,EQUAL,LEFT,50,33,False,True,True,True,False,False,LEFT,LEFT
140,190,260,150,UP,RIGHT,160,15,True,True,True,False,True,False,UP,UP
320,50,390,80,DOWN,RIGHT,100,55,True,False,True,True,False,False,RIGHT,RIGHT
180,400,160,410,DOWN,LEFT,30,54,True,True,False,True,True,False,DOWN,DOWN
340,210,370,230,DOWN,RIGHT,50,50,True,True,False,True,False,False,DOWN,DOWN
230,410,310,120,UP,RIGHT,370,48,True,True,True,False,True,True,UP,RIGHT
140,470,320,270,UP,RIGHT,380,26,True,False,True,False,True,False,RIGHT,RIGHT
260,210,40,400,DOWN,LEFT,410,39,False,True,True,True,False,False,LEFT,LEFT
210,410,220,360,UP,RIGHT,60,40,True,False,True,True,True,False,RIGHT,RIGHT
430,80,440,80,EQUAL,RIGHT,10,60,True,False,True,True,True,False,RIGHT,RIGHT
270,160,280,160,EQUAL,RIGHT,10,32,True,False,True,True,False,False,RIGHT,RIGHT
300,70,310,120,DOWN,RIGHT,60,48,True,True,True,False,False,False,UP,UP
140,180,260,150,UP,RIGHT,150,15,True,True,True,False,True,False,UP,UP
400,10,190,190,DOWN,LEFT,390,19,False,True,True,True,False,False,LEFT,LEFT
220,210,40,210,EQUAL,LEFT,180,45,False,True,True,True,True,False,LEFT,LEFT
120,90,120,70,UP,EQUAL,20,31,True,True,True,False,True,False,UP,UP
20,410,30,410,EQUAL,RIGHT,10,41,True,True,False,True,True,False,DOWN,DOWN
200,120,50,250,DOWN,LEFT,280,7,True,True,False,True,False,False,DOWN,DOWN
30,410,30,440,DOWN,EQUAL,30,12,True,True,False,True,False,False,DOWN,DOWN
80,310,80,410,DOWN,EQUAL,100,34,True,True,False,True,False,False,DOWN,DOWN
320,180,20,330,DOWN,LEFT,450,33,True,True,False,True,False,False,DOWN,DOWN
280,180,460,20,UP,RIGHT,340,18,True,True,True,False,True,False,UP,UP
70,160,100,10,UP,RIGHT,180,10,True,True,True,False,True,False,UP,UP
180,210,40,210,EQUAL,LEFT,140,45,False,True,True,True,True,False,LEFT,LEFT
270,60,280,160,DOWN,RIGHT,110,32,True,True,False,True,True,False,DOWN,DOWN
20,290,30,410,DOWN,RIGHT,130,41,True,True,False,True,True,False,DOWN,DOWN
190,210,40,210,EQUAL,LEFT,150,45,False,True,True,True,True,False,LEFT,LEFT
160,310,430,320,DOWN,RIGHT,280,46,True,False,True,True,True,False,RIGHT,RIGHT
180,260,50,250,UP,LEFT,140,7,False,True,True,True,True,False,LEFT,LEFT
50,40,400,20,UP,RIGHT,370,8,True,True,True,False,True,False,UP,UP
180,270,180,360,DOWN,EQUAL,90,53,True,True,False,True,True,False,DOWN,DOWN
410,20,100,370,DOWN,LEFT,660,9,True,False,True,True,False,False,RIGHT,RIGHT
130,390,80,410,DOWN,LEFT,70,34,False,True,True,True,False,False,LEFT,LEFT
260,230,40,240,DOWN,LEFT,230,57,False,True,True,True,True,False,LEFT,LEFT
100,0,100,10,DOWN,EQUAL,10,10,True,False,False,True,True,False,RIGHT,RIGHT
160,320,390,80,UP,RIGHT,470,55,True,True,True,False,False,False,UP,UP
50,190,460,440,DOWN,RIGHT,660,58,True,False,True,True,True,False,RIGHT,RIGHT
220,40,280,160,DOWN,RIGHT,180,32,True,False,True,True,True,False,RIGHT,RIGHT
140,160,160,420,DOWN,RIGHT,280,43,True,True,False,True,False,False,DOWN,DOWN
280,190,460,440,DOWN,RIGHT,430,58,True,False,True,True,True,False,RIGHT,RIGHT
300,100,310,120,DOWN,RIGHT,30,48,True,True,True,False,False,False,UP,UP
320,40,120,50,DOWN,LEFT,210,27,True,True,True,False,True,False,UP,LEFT
130,450,210,440,UP,RIGHT,90,44,False,True,True,True,False,False,LEFT,LEFT
130,70,220,70,EQUAL,RIGHT,90,29,True,False,True,True,False,False,RIGHT,RIGHT
130,40,60,180,DOWN,LEFT,210,14,True,True,True,False,False,False,UP,UP
420,190,460,440,DOWN,RIGHT,290,58,True,False,True,True,True,False,RIGHT,RIGHT
300,190,460,440,DOWN,RIGHT,410,58,True,False,True,True,True,False,RIGHT,RIGHT
140,270,160,420,DOWN,RIGHT,170,43,True,True,False,True,False,False,DOWN,DOWN
200,190,50,250,DOWN,LEFT,210,7,True,True,False,True,False,False,DOWN,DOWN
80,240,40,240,EQUAL,LEFT,40,57,False,True,True,True,False,False,LEFT,LEFT
400,190,390,170,UP,LEFT,30,49,True,True,False,True,False,False,DOWN,DOWN
270,440,270,380,UP,EQUAL,60,35,True,True,True,False,True,False,UP,UP
100,120,100,50,UP,EQUAL,70,52,True,True,True,False,False,False,UP,UP
10,220,80,410,DOWN,RIGHT,260,34,True,True,True,False,True,False,UP,RIGHT
170,90,170,100,DOWN,EQUAL,10,6,False,True,True,True,False,False,LEFT,LEFT
450,240,370,230,UP,LEFT,90,50,True,False,True,True,True,False,RIGHT,UP
160,440,350,310,UP,RIGHT,320,23,True,False,True,True,False,False,RIGHT,RIGHT
90,410,30,410,EQUAL,LEFT,60,41,False,True,True,False,True,True,LEFT,LEFT
420,230,100,370,DOWN,LEFT,460,9,True,True,False,True,False,False,DOWN,DOWN
140,420,30,410,UP,LEFT,120,41,True,False,True,True,True,False,RIGHT,RIGHT
450,290,280,210,UP,LEFT,250,17,True,True,False,True,False,False,DOWN,DOWN
220,440,210,440,EQUAL,LEFT,10,44,True,True,False,True,False,False,DOWN,DOWN
180,120,30,440,DOWN,LEFT,470,12,False,True,True,True,False,False,LEFT,LEFT
420,50,340,300,DOWN,LEFT,330,5,True,True,False,True,False,False,DOWN,DOWN
100,410,220,360,UP,RIGHT,170,40,True,False,True,True,True,False,RIGHT,RIGHT
440,240,370,230,UP,LEFT,80,50,True,False,True,True,True,False,RIGHT,RIGHT
170,300,210,440,DOWN,RIGHT,180,44,True,False,True,True,True,False,RIGHT,RIGHT
310,230,460,190,UP,RIGHT,190,20,True,False,True,True,False,False,RIGHT,RIGHT
120,320,80,410,DOWN,LEFT,130,34,True,False,True,True,False,False,RIGHT,RIGHT
310,470,320,270,UP,RIGHT,210,26,True,False,True,False,True,False,RIGHT,RIGHT
270,350,300,330,UP,RIGHT,50,36,True,True,True,False,True,False,UP,UP
450,210,460,440,DOWN,RIGHT,240,58,True,True,False,True,True,False,DOWN,DOWN
380,150,440,80,UP,RIGHT,130,60,True,True,True,False,True,False,UP,UP
80,10,180,80,DOWN,RIGHT,170,11,False,True,True,True,False,False,LEFT,LEFT
270,30,160,420,DOWN,LEFT,500,43,False,True,True,True,False,False,LEFT,LEFT
290,40,160,420,DOWN,LEFT,510,43,True,True,True,False,False,False,UP,UP
420,140,340,300,DOWN,LEFT,240,5,True,True,False,True,False,False,DOWN,DOWN
260,230,460,190,UP,RIGHT,240,20,True,False,True,True,False,False,RIGHT,RIGHT
390,60,390,80,DOWN,EQUAL,20,55,True,True,False,True,False,False,DOWN,DOWN
200,260,50,250,UP,LEFT,160,7,True,True,False,True,False,False,DOWN,LEFT
230,470,320,270,UP,RIGHT,290,26,True,False,True,False,True,False,RIGHT,RIGHT
90,50,10,110,DOWN,LEFT,140,28,False,True,True,True,False,False,LEFT,DOWN
430,300,280,210,UP,LEFT,240,17,False,True,True,True,False,False,LEFT,LEFT
90,0,100,10,DOWN,RIGHT,20,10,True,False,False,True,True,False,RIGHT,RIGHT
350,300,180,280,UP,LEFT,190,24,True,True,True,False,True,False,UP,UP
10,350,10,460,DOWN,EQUAL,110,25,True,True,False,True,True,False,DOWN,DOWN
170,150,280,160,DOWN,RIGHT,120,32,True,False,True,True,True,True,RIGHT,RIGHT
200,440,350,310,UP,RIGHT,280,23,True,False,True,True,False,False,RIGHT,RIGHT
410,430,390,260,UP,LEFT,190,38,False,True,True,True,True,False,LEFT,LEFT
50,120,30,440,DOWN,LEFT,340,12,False,True,True,True,False,False,LEFT,LEFT
180,30,160,420,DOWN,LEFT,410,43,False,True,True,True,False,False,LEFT,LEFT
370,320,370,330,DOWN,EQUAL,10,51,True,True,False,True,False,False,DOWN,DOWN
450,370,460,440,DOWN,RIGHT,80,58,True,True,False,True,True,False,DOWN,DOWN
180,170,180,360,DOWN,EQUAL,190,53,True,True,False,True,True,False,DOWN,DOWN
280,450,310,120,EQUAL,EQUAL,360,48,False,True,True,True,False,False,LEFT,LEFT
390,260,360,430,DOWN,LEFT,200,56,True,True,False,True,False,False,DOWN,DOWN
450,410,460,440,DOWN,RIGHT,40,58,True,True,False,True,True,False,DOWN,DOWN
420,100,340,300,DOWN,LEFT,280,5,True,True,False,True,False,False,DOWN,DOWN
60,210,40,400,DOWN,LEFT,210,39,False,True,True,True,False,False,LEFT,LEFT
450,330,460,440,DOWN,RIGHT,120,58,True,True,False,True,True,False,DOWN,DOWN
180,450,270,380,UP,RIGHT,160,35,True,False,True,True,False,False,RIGHT,RIGHT
120,50,10,110,EQUAL,EQUAL,170,28,False,True,True,True,False,False,LEFT,LEFT
50,230,400,20,UP,RIGHT,560,8,True,True,True,False,True,False,UP,UP
390,430,390,260,UP,EQUAL,170,38,False,True,True,True,True,False,LEFT,LEFT
70,110,100,10,UP,RIGHT,130,10,True,True,True,False,True,False,UP,UP
430,340,40,240,UP,LEFT,490,57,True,True,True,False,True,False,UP,UP
290,0,420,20,DOWN,RIGHT,150,4,True,False,False,True,False,False,RIGHT,RIGHT
50,260,50,250,UP,EQUAL,10,7,False,True,True,True,True,False,LEFT,UP
200,250,50,250,EQUAL,LEFT,150,7,True,True,False,True,False,False,DOWN,DOWN
190,120,30,440,DOWN,LEFT,480,12,False,True,True,True,False,False,LEFT,LEFT
320,150,120,50,UP,LEFT,300,27,True,True,True,False,True,False,UP,UP
380,320,380,200,UP,EQUAL,120,59,True,True,True,False,True,True,UP,UP
450,400,460,440,DOWN,RIGHT,50,58,True,True,False,True,True,False,DOWN,DOWN
380,260,380,200,UP,EQUAL,60,59,True,True,True,False,True,False,UP,UP
100,360,110,440,DOWN,RIGHT,90,22,False,True,True,True,False,False,LEFT,DOWN
140,300,160,420,DOWN,RIGHT,140,43,True,True,False,True,False,False,DOWN,RIGHT
430,310,430,320,DOWN,EQUAL,10,46,True,False,True,True,True,False,RIGHT,DOWN
160,340,80,410,DOWN,LEFT,150,34,True,True,False,True,False,False,DOWN,DOWN
450,210,370,230,DOWN,LEFT,100,50,True,True,True,False,True,False,UP,UP
340,310,430,320,DOWN,RIGHT,100,46,True,False,True,True,True,False,RIGHT,RIGHT
270,230,460,190,UP,RIGHT,230,20,True,False,True,True,False,False,RIGHT,RIGHT
130,40,280,160,DOWN,RIGHT,270,32,True,False,True,True,True,False,RIGHT,RIGHT
370,310,340,300,UP,LEFT,40,5,False,True,True,True,True,False,LEFT,LEFT
150,230,40,240,DOWN,LEFT,120,57,False,True,True,True,True,False,LEFT,LEFT
100,190,460,440,DOWN,RIGHT,610,58,True,False,True,True,True,False,RIGHT,RIGHT
190,470,320,270,UP,RIGHT,330,26,True,False,True,False,True,False,RIGHT,RIGHT
320,190,120,50,UP,LEFT,340,27,True,True,True,False,True,False,UP,UP
100,310,110,440,DOWN,RIGHT,140,22,True,False,True,True,False,False,RIGHT,RIGHT
290,190,290,50,UP,EQUAL,140,42,True,True,True,False,False,False,UP,UP
10,420,10,460,DOWN,EQUAL,40,25,True,True,False,True,True,False,DOWN,DOWN
90,70,10,110,DOWN,LEFT,120,28,True,True,False,True,False,False,DOWN,DOWN
80,310,430,320,DOWN,RIGHT,360,46,True,False,True,True,True,False,RIGHT,RIGHT
110,300,100,50,UP,LEFT,260,52,True,True,True,False,True,False,UP,UP
140,300,290,50,UP,RIGHT,400,42,True,False,True,True,False,False,RIGHT,RIGHT
370,250,370,330,DOWN,EQUAL,80,51,True,True,False,True,False,False,DOWN,DOWN
100,440,130,70,UP,RIGHT,400,13,True,False,True,True,False,False,RIGHT,UP
160,290,390,80,UP,RIGHT,440,55,True,True,True,False,False,False,UP,UP
90,470,320,270,UP,RIGHT,430,26,True,False,True,False,True,False,RIGHT,RIGHT
190,280,180,280,EQUAL,LEFT,10,24,False,True,True,True,True,False,LEFT,LEFT
420,50,100,370,DOWN,LEFT,640,9,True,True,False,True,False,False,DOWN,DOWN
140,280,30,410,DOWN,LEFT,240,41,False,True,True,True,True,False,LEFT,LEFT
350,420,360,430,DOWN,RIGHT,20,56,False,True,True,True,True,False,LEFT,LEFT
180,260,180,360,DOWN,EQUAL,100,53,True,True,False,True,True,False,DOWN,DOWN
50,410,220,360,UP,RIGHT,220,40,True,False,True,True,True,False,RIGHT,RIGHT
20,380,30,410,DOWN,RIGHT,40,41,True,True,False,True,True,False,DOWN,DOWN
320,230,40,240,DOWN,LEFT,290,57,False,True,True,True,True,False,LEFT,LEFT
340,150,170,100,UP,LEFT,220,6,True,True,True,False,True,False,UP,UP
390,370,100,370,EQUAL,LEFT,290,9,False,True,True,True,True,False,LEFT,LEFT
430,350,280,450,DOWN,LEFT,250,47,True,True,False,True,False,False,DOWN,DOWN
420,310,340,300,UP,LEFT,90,5,True,True,False,True,False,False,DOWN,LEFT
60,190,260,150,UP,RIGHT,240,15,True,True,False,True,True,False,DOWN,DOWN
120,120,30,440,DOWN,LEFT,410,12,False,True,True,True,False,False,LEFT,LEFT
120,260,50,250,UP,LEFT,80,7,False,True,True,True,True,False,LEFT,LEFT
120,330,20,330,EQUAL,LEFT,100,33,False,True,True,True,False,False,LEFT,LEFT
330,10,190,190,DOWN,LEFT,320,19,False,True,True,True,False,False,LEFT,LEFT
110,50,180,360,DOWN,RIGHT,380,53,True,False,True,True,False,False,RIGHT,RIGHT
210,10,190,190,DOWN,LEFT,200,19,False,True,True,True,False,False,LEFT,LEFT
430,320,40,240,UP,LEFT,470,57,True,True,True,False,True,False,UP,UP
140,280,160,420,DOWN,RIGHT,160,43,True,True,False,True,False,False,DOWN,DOWN
370,430,390,260,UP,RIGHT,190,38,False,True,True,True,True,False,LEFT,LEFT
50,130,400,20,UP,RIGHT,460,8,True,True,True,False,True,False,UP,UP
230,30,160,420,DOWN,LEFT,460,43,False,True,True,True,False,False,LEFT,LEFT
390,380,360,430,DOWN,LEFT,80,56,True,True,False,True,False,False,DOWN,DOWN
360,230,460,190,UP,RIGHT,140,20,True,False,True,True,False,False,RIGHT,RIGHT
340,430,390,260,UP,RIGHT,220,38,False,True,True,True,True,False,LEFT,LEFT
420,330,100,370,DOWN,LEFT,360,9,True,True,False,True,False,False,DOWN,DOWN
140,400,160,410,DOWN,RIGHT,30,54,True,False,True,True,True,True,RIGHT,DOWN
400,130,390,170,DOWN,LEFT,50,49,True,False,True,True,False,False,RIGHT,DOWN
120,280,130,70,UP,RIGHT,220,13,True,True,True,False,False,False,UP,UP
270,440,350,310,UP,RIGHT,210,23,True,False,True,True,False,False,RIGHT,RIGHT
50,90,400,20,UP,RIGHT,420,8,True,True,True,False,True,False,UP,UP
70,250,100,10,UP,RIGHT,270,10,True,True,True,False,True,False,UP,UP
30,230,430,320,DOWN,RIGHT,490,46,True,True,False,True,True,False,DOWN,DOWN
20,100,10,110,DOWN,LEFT,20,28,True,True,False,True,False,False,DOWN,DOWN
160,120,390,80,UP,RIGHT,270,55,True,True,True,False,False,False,UP,UP
450,220,450,270,DOWN,EQUAL,50,16,True,False,True,True,False,False,RIGHT,DOWN
120,70,130,10,UP,RIGHT,70,3,True,True,False,True,True,False,DOWN,DOWN
100,210,40,210,EQUAL,LEFT,60,45,False,True,True,True,True,False,LEFT,LEFT
80,440,270,380,UP,RIGHT,250,35,True,True,False,True,False,False,DOWN,DOWN
210,230,460,190,UP,RIGHT,290,20,True,False,True,True,False,False,RIGHT,RIGHT
380,210,40,400,DOWN,LEFT,530,39,False,True,True,True,False,False,LEFT,LEFT
360,430,40,240,EQUAL,EQUAL,510,57,True,False,False,True,False,False,RIGHT,RIGHT
90,420,30,410,UP,LEFT,70,41,True,False,True,True,True,False,RIGHT,RIGHT
450,120,120,80,UP,LEFT,370,61,True,True,False,True,True,True,DOWN,DOWN
280,330,20,330,EQUAL,LEFT,260,33,False,True,True,True,False,False,LEFT,LEFT
100,390,80,410,DOWN,LEFT,40,34,False,True,True,True,False,False,LEFT,LEFT
450,200,460,440,DOWN,RIGHT,250,58,True,True,False,True,True,False,DOWN,DOWN
270,340,300,330,UP,RIGHT,40,36,True,True,True,False,True,False,UP,UP
70,360,100,10,UP,RIGHT,380,10,True,True,True,False,True,False,UP,UP
140,260,160,420,DOWN,RIGHT,180,43,True,True,False,True,False,False,DOWN,DOWN
160,80,180,80,EQUAL,RIGHT,20,11,True,False,True,True,True,False,RIGHT,RIGHT
350,310,180,280,EQUAL,EQUAL,200,24,True,True,True,False,True,False,UP,UP
300,310,430,320,DOWN,RIGHT,140,46,True,False,True,True,True,False,RIGHT,RIGHT
320,250,20,330,DOWN,LEFT,380,33,True,True,False,True,False,False,DOWN,DOWN
430,400,280,450,DOWN,LEFT,200,47,True,True,False,True,False,False,DOWN,DOWN
390,290,360,430,DOWN,LEFT,170,56,True,True,False,True,False,False,DOWN,DOWN
390,130,360,430,DOWN,LEFT,330,56,True,True,False,True,False,False,DOWN,DOWN
50,120,400,20,UP,RIGHT,450,8,True,True,True,False,True,False,UP,UP
330,190,460,440,DOWN,RIGHT,380,58,True,False,True,True,True,False,RIGHT,RIGHT
340,170,170,100,UP,LEFT,240,6,True,True,True,False,True,False,UP,UP
50,300,210,440,DOWN,RIGHT,300,44,True,True,True,False,True,False,UP,RIGHT
70,320,100,10,UP,RIGHT,340,10,True,True,True,False,True,False,UP,UP
30,370,30,440,DOWN,EQUAL,70,12,False,True,True,True,False,False,LEFT,DOWN
110,210,100,50,UP,LEFT,170,52,True,True,True,False,True,False,UP,UP
340,100,170,100,EQUAL,LEFT,170,6,True,True,True,False,True,False,UP,UP
420,230,340,300,DOWN,LEFT,150,5,True,True,False,True,False,False,DOWN,DOWN
200,230,460,190,UP,RIGHT,300,20,True,False,True,True,False,False,RIGHT,RIGHT
150,300,160,420,DOWN,RIGHT,130,43,True,False,True,True,False,False,RIGHT,DOWN
300,110,310,120,DOWN,RIGHT,20,48,True,True,True,False,False,False,UP,UP
290,180,290,50,UP,EQUAL,130,42,True,True,True,False,False,False,UP,UP
450,230,450,270,DOWN,EQUAL,40,16,True,True,False,True,False,False,DOWN,DOWN
40,210,30,440,DOWN,LEFT,240,12,True,True,False,True,False,False,DOWN,DOWN
320,170,20,330,DOWN,LEFT,460,33,True,True,False,True,False,False,DOWN,DOWN
370,20,400,20,EQUAL,RIGHT,30,8,True,False,True,True,False,False,RIGHT,RIGHT
380,190,440,80,UP,RIGHT,170,60,True,True,True,False,True,False,UP,UP
190,130,190,190,DOWN,EQUAL,60,19,True,True,False,True,False,False,DOWN,DOWN
390,320,390,260,UP,EQUAL,60,38,True,True,True,False,False,False,UP,UP
170,120,30,440,DOWN,LEFT,460,12,False,True,True,True,False,False,LEFT,LEFT
190,350,210,440,DOWN,RIGHT,110,44,True,True,False,True,True,False,DOWN,DOWN
70,50,180,80,DOWN,RIGHT,140,11,True,True,False,True,False,False,DOWN,DOWN
120,310,430,320,DOWN,RIGHT,320,46,True,False,True,True,True,False,RIGHT,RIGHT
290,390,390,260,UP,RIGHT,230,38,True,True,True,False,True,False,UP,UP
70,220,260,150,UP,RIGHT,260,15,True,False,True,True,True,False,RIGHT,RIGHT
240,10,400,20,DOWN,RIGHT,170,8,True,False,True,True,False,False,RIGHT,RIGHT
350,430,360,430,EQUAL,RIGHT,10,56,True,False,False,True,False,False,RIGHT,RIGHT
430,260,40,240,UP,LEFT,410,57,True,True,True,False,True,False,UP,UP
320,320,310,120,UP,LEFT,210,48,True,True,True,False,False,False,UP,UP
170,300,290,50,UP,RIGHT,370,42,True,False,True,True,False,False,RIGHT,RIGHT
210,210,40,400,DOWN,LEFT,360,39,False,True,True,True,False,False,LEFT,LEFT
300,260,150,260,EQUAL,LEFT,150,21,False,True,True,True,False,False,LEFT,LEFT
320,90,370,230,DOWN,RIGHT,190,50,False,True,True,True,True,False,LEFT,LEFT
360,450,280,450,EQUAL,LEFT,80,47,False,True,True,True,False,False,LEFT,LEFT
200,210,40,400,DOWN,LEFT,350,39,False,True,True,True,False,False,LEFT,LEFT
140,410,160,410,EQUAL,RIGHT,20,54,True,True,False,False,True,True,DOWN,RIGHT
160,80,390,80,EQUAL,RIGHT,230,55,True,True,True,False,False,False,UP,UP
100,390,130,70,UP,RIGHT,350,13,True,True,True,False,True,False,UP,UP
300,330,20,330,EQUAL,LEFT,280,33,False,True,True,True,False,False,LEFT,LEFT
200,300,290,50,UP,RIGHT,340,42,True,False,True,True,False,False,RIGHT,RIGHT
170,420,160,410,UP,LEFT,20,54,False,True,True,True,True,False,LEFT,LEFT
400,310,340,300,UP,LEFT,70,5,False,True,True,True,True,False,LEFT,LEFT
280,230,280,210,UP,EQUAL,20,17,True,True,True,False,True,False,UP,UP
180,130,180,360,DOWN,EQUAL,230,53,True,True,False,True,True,False,DOWN,DOWN
230,280,180,280,EQUAL,LEFT,50,24,False,True,True,True,True,False,LEFT,LEFT
170,0,130,10,DOWN,LEFT,50,3,False,True,False,True,False,False,LEFT,LEFT
140,170,160,420,DOWN,RIGHT,270,43,True,True,False,True,False,False,DOWN,DOWN
220,390,220,360,UP,EQUAL,30,40,True,True,True,False,True,False,UP,UP
250,190,460,440,DOWN,RIGHT,460,58,True,False,True,True,True,False,RIGHT,RIGHT
220,40,120,50,DOWN,LEFT,110,27,False,True,True,True,True,False,LEFT,LEFT
360,20,400,20,EQUAL,RIGHT,40,8,True,False,True,True,False,False,RIGHT,RIGHT
390,300,360,430,DOWN,LEFT,160,56,True,True,False,True,False,False,DOWN,DOWN
210,40,120,50,DOWN,LEFT,100,27,False,True,True,True,True,False,LEFT,LEFT
390,300,390,260,UP,EQUAL,40,38,True,True,True,False,False,False,UP,UP
40,280,10,460,DOWN,LEFT,210,25,False,True,True,True,True,False,LEFT,LEFT
130,130,130,70,UP,EQUAL,60,13,True,True,True,False,False,False,UP,UP
70,410,160,410,EQUAL,RIGHT,90,54,True,True,True,False,True,False,UP,UP
80,300,290,50,UP,RIGHT,460,42,True,False,True,True,False,False,RIGHT,RIGHT
160,410,390,80,EQUAL,EQUAL,560,55,True,False,True,False,False,False,RIGHT,UP
410,190,460,440,DOWN,RIGHT,300,58,True,False,True,True,True,False,RIGHT,RIGHT
50,210,40,210,EQUAL,LEFT,10,45,False,True,True,True,True,False,LEFT,LEFT
380,170,150,260,DOWN,LEFT,320,21,True,True,False,True,True,False,DOWN,DOWN
50,200,400,20,UP,RIGHT,530,8,True,True,True,False,True,False,UP,UP
150,390,160,420,DOWN,RIGHT,40,43,True,True,False,True,False,False,DOWN,DOWN
400,220,390,170,UP,LEFT,60,49,True,True,False,True,False,True,DOWN,LEFT
270,250,40,210,UP,LEFT,270,45,True,True,True,False,False,False,UP,UP
330,430,360,430,EQUAL,RIGHT,30,56,True,False,False,True,False,False,RIGHT,RIGHT
170,50,180,360,DOWN,RIGHT,320,53,True,False,True,True,False,False,RIGHT,RIGHT
250,50,390,80,DOWN,RIGHT,170,55,True,False,True,True,False,False,RIGHT,RIGHT
430,430,390,260,UP,LEFT,210,38,False,True,True,True,True,False,LEFT,LEFT
290,290,290,50,UP,EQUAL,240,42,True,True,True,False,False,False,UP,UP
270,300,290,50,UP,RIGHT,270,42,True,False,True,True,False,False,RIGHT,RIGHT
390,270,360,430,DOWN,LEFT,190,56,True,True,False,True,False,False,DOWN,DOWN
140,410,30,410,EQUAL,LEFT,110,41,False,True,True,False,True,True,LEFT,LEFT
110,210,40,400,DOWN,LEFT,260,39,False,True,True,True,False,False,LEFT,LEFT
140,180,160,420,DOWN,RIGHT,260,43,True,True,False,True,False,False,DOWN,DOWN
180,210,40,400,DOWN,LEFT,330,39,False,True,True,True,False,False,LEFT,LEFT
90,80,10,110,DOWN,LEFT,110,28,True,True,False,True,False,False,DOWN,DOWN
10,290,10,460,DOWN,EQUAL,170,25,True,True,False,True,True,False,DOWN,DOWN
350,100,370,230,DOWN,RIGHT,150,50,True,False,False,True,True,True,RIGHT,RIGHT
120,30,100,10,UP,LEFT,40,10,True,True,False,True,True,False,DOWN,DOWN
280,280,180,280,EQUAL,LEFT,100,24,False,True,True,True,True,False,LEFT,LEFT
420,260,340,300,DOWN,LEFT,120,5,True,True,False,True,False,False,DOWN,DOWN
100,420,30,410,UP,LEFT,80,41,True,False,True,True,True,False,RIGHT,RIGHT
290,210,40,400,DOWN,LEFT,440,39,False,True,True,True,False,False,LEFT,LEFT
50,430,210,440,DOWN,RIGHT,170,44,True,True,True,False,True,False,UP,UP
110,50,10,110,DOWN,LEFT,160,28,False,True,True,True,False,False,LEFT,LEFT
30,400,30,440,DOWN,EQUAL,40,12,True,True,False,True,False,False,DOWN,DOWN
130,80,180,80,EQUAL,RIGHT,50,11,True,False,True,True,True,False,RIGHT,RIGHT
180,350,180,360,DOWN,EQUAL,10,53,True,True,False,True,True,False,DOWN,DOWN
120,120,120,70,UP,EQUAL,50,31,False,True,True,True,False,False,LEFT,UP
30,410,290,50,EQUAL,EQUAL,620,42,False,False,True,False,True,True,LEFT,UP
260,50,390,80,DOWN,RIGHT,160,55,True,False,True,True,False,False,RIGHT,RIGHT
20,240,460,440,DOWN,RIGHT,640,58,False,True,True,True,False,False,LEFT,UP
200,80,50,250,DOWN,LEFT,320,7,True,True,False,True,False,False,DOWN,DOWN
400,140,390,170,DOWN,LEFT,40,49,True,True,False,True,False,False,DOWN,DOWN
200,450,270,380,UP,RIGHT,140,35,True,False,True,True,False,False,RIGHT,RIGHT
420,160,100,370,DOWN,LEFT,530,9,True,True,False,True,False,False,DOWN,DOWN
70,270,100,10,UP,RIGHT,290,10,True,True,True,False,True,False,UP,UP
150,330,20,330,EQUAL,LEFT,130,33,False,True,True,True,False,False,LEFT,LEFT
430,380,40,240,UP,LEFT,530,57,True,True,True,False,True,False,UP,UP
400,240,370,230,UP,LEFT,40,50,True,False,True,True,True,False,RIGHT,RIGHT
90,260,50,250,UP,LEFT,50,7,False,True,True,True,True,False,LEFT,LEFT
320,160,20,330,DOWN,LEFT,470,33,True,False,True,True,False,False,RIGHT,DOWN
280,110,270,120,DOWN,LEFT,20,30,True,True,False,True,False,False,DOWN,DOWN
290,280,180,280,EQUAL,LEFT,110,24,False,True,True,True,True,False,LEFT,LEFT
250,120,120,70,UP,LEFT,180,31,False,True,True,True,False,False,LEFT,LEFT
60,190,460,440,DOWN,RIGHT,650,58,True,False,True,True,True,False,RIGHT,RIGHT
20,200,460,440,DOWN,RIGHT,680,58,True,True,True,False,False,False,UP,UP
130,60,60,180,DOWN,LEFT,190,14,True,True,True,False,False,False,UP,UP
100,310,130,70,UP,RIGHT,270,13,True,True,True,False,True,False,UP,UP
320,160,120,50,UP,LEFT,310,27,True,True,True,False,True,False,UP,UP
420,310,430,320,DOWN,RIGHT,20,46,True,False,True,True,True,False,RIGHT,RIGHT
50,170,400,20,UP,RIGHT,500,8,True,True,True,False,True,False,UP,UP
310,300,280,210,UP,LEFT,120,17,False,True,True,True,False,False,LEFT,LEFT
290,410,390,260,UP,RIGHT,250,38,True,True,True,False,True,False,UP,UP
140,370,100,370,EQUAL,LEFT,40,9,False,True,True,True,True,False,LEFT,LEFT
90,120,30,440,DOWN,LEFT,380,12,False,True,True,True,False,False,LEFT,LEFT
160,260,150,260,EQUAL,LEFT,10,21,False,True,True,True,False,False,LEFT,LEFT
290,230,460,190,UP,RIGHT,210,20,True,False,True,True,False,False,RIGHT,RIGHT
320,370,320,270,UP,EQUAL,100,26,True,True,True,False,True,False,UP,UP
140,230,160,420,DOWN,RIGHT,210,43,True,True,False,True,False,False,DOWN,DOWN
130,40,130,10,UP,EQUAL,30,3,True,True,True,False,True,False,UP,UP
120,360,110,440,DOWN,LEFT,90,22,True,True,False,True,False,False,DOWN,LEFT
160,330,390,80,UP,RIGHT,480,55,True,True,True,False,False,False,UP,UP
20,220,460,440,DOWN,RIGHT,660,58,True,True,True,False,False,False,UP,UP
200,50,390,80,DOWN,RIGHT,220,55,True,False,True,True,False,False,RIGHT,RIGHT
410,230,460,190,UP,RIGHT,90,20,True,False,True,True,False,False,RIGHT,RIGHT
190,380,210,440,DOWN,RIGHT,80,44,True,True,False,True,True,False,DOWN,DOWN
370,130,390,170,DOWN,RIGHT,60,49,True,False,True,True,False,False,RIGHT,RIGHT
170,410,220,360,UP,RIGHT,100,40,True,False,True,True,True,False,RIGHT,RIGHT
80,80,180,80,EQUAL,RIGHT,100,11,True,False,True,True,True,False,RIGHT,RIGHT
10,160,10,110,UP,EQUAL,50,28,False,True,True,False,False,False,UP,UP
20,390,30,410,DOWN,RIGHT,30,41,True,True,False,True,True,False,DOWN,DOWN
310,110,310,120,DOWN,EQUAL,10,48,True,False,False,True,True,True,DOWN,DOWN
140,280,10,460,DOWN,LEFT,310,25,False,True,True,True,True,False,LEFT,LEFT
420,220,100,370,DOWN,LEFT,470,9,True,True,False,True,False,False,DOWN,DOWN
120,100,120,70,UP,EQUAL,30,31,True,True,True,False,True,False,UP,UP
420,190,340,300,DOWN,LEFT,190,5,True,True,False,True,False,False,DOWN,DOWN
100,90,100,50,UP,EQUAL,40,52,True,True,True,False,False,False,UP,UP
420,340,100,370,DOWN,LEFT,350,9,True,True,False,True,False,False,DOWN,DOWN
220,440,40,210,UP,LEFT,410,45,True,False,True,True,False,False,RIGHT,RIGHT
400,370,100,370,EQUAL,LEFT,300,9,False,True,True,True,True,False,LEFT,LEFT
110,410,30,410,EQUAL,LEFT,80,41,False,True,True,False,True,True,LEFT,LEFT
380,170,440,80,UP,RIGHT,150,60,True,True,True,False,True,False,UP,UP
160,110,160,420,DOWN,EQUAL,310,43,True,True,False,True,True,False,DOWN,DOWN
170,230,40,240,DOWN,LEFT,140,57,False,True,True,True,True,False,LEFT,LEFT
50,370,210,440,DOWN,RIGHT,230,44,True,True,True,False,True,False,UP,UP
160,160,390,80,UP,RIGHT,310,55,True,True,True,False,False,False,UP,UP
150,420,30,410,UP,LEFT,130,41,True,False,True,True,True,True,RIGHT,UP
180,100,180,360,DOWN,EQUAL,260,53,True,True,False,True,True,True,DOWN,DOWN
380,450,280,450,EQUAL,LEFT,100,47,False,True,True,True,False,False,LEFT,LEFT
110,280,10,460,DOWN,LEFT,280,25,False,True,True,True,True,False,LEFT,LEFT
300,350,390,260,UP,RIGHT,180,38,True,False,True,True,True,True,RIGHT,RIGHT
450,100,370,230,DOWN,LEFT,210,50,True,True,True,False,True,False,UP,UP
280,170,460,20,UP,RIGHT,330,18,True,True,True,False,True,False,UP,UP
180,440,350,310,UP,RIGHT,300,23,True,False,True,True,False,False,RIGHT,RIGHT
460,100,460,20,UP,EQUAL,80,18,True,True,True,False,False,False,UP,UP
150,50,130,10,UP,LEFT,60,3,True,False,True,True,False,False,RIGHT,RIGHT
210,70,220,70,EQUAL,RIGHT,10,29,True,False,True,True,False,False,RIGHT,RIGHT
190,360,210,440,DOWN,RIGHT,100,44,True,True,False,True,True,False,DOWN,DOWN
170,140,170,100,UP,EQUAL,40,6,True,False,True,False,True,False,UP,UP
210,120,30,440,DOWN,LEFT,500,12,False,True,True,True,False,False,LEFT,LEFT
70,470,320,270,UP,RIGHT,450,26,True,False,True,False,True,False,RIGHT,RIGHT
130,190,460,440,DOWN,RIGHT,580,58,True,False,True,True,True,False,RIGHT,RIGHT
250,170,280,160,UP,RIGHT,40,32,False,True,True,True,False,False,LEFT,LEFT
380,120,440,80,UP,RIGHT,100,60,True,True,True,False,True,False,UP,UP
40,410,220,360,UP,RIGHT,230,40,True,True,False,True,True,False,DOWN,RIGHT
50,50,400,20,UP,RIGHT,380,8,True,True,True,False,True,False,UP,UP
160,110,170,100,UP,RIGHT,20,6,True,True,False,True,False,False,DOWN,DOWN
200,0,420,20,DOWN,RIGHT,240,4,True,False,False,True,False,False,RIGHT,RIGHT
300,470,320,270,UP,RIGHT,220,26,True,False,True,False,True,False,RIGHT,RIGHT
90,30,400,20,UP,RIGHT,320,8,True,False,True,True,True,False,RIGHT,RIGHT
130,50,130,10,UP,EQUAL,40,3,True,False,True,True,False,False,RIGHT,RIGHT
160,350,80,410,DOWN,LEFT,140,34,True,True,False,True,False,False,DOWN,DOWN
120,70,100,10,UP,LEFT,80,10,True,True,False,True,True,False,DOWN,DOWN
70,60,180,80,DOWN,RIGHT,130,11,True,True,False,True,False,False,DOWN,DOWN
200,130,50,250,DOWN,LEFT,270,7,True,True,False,True,False,False,DOWN,DOWN
130,30,60,180,DOWN,LEFT,220,14,True,True,True,False,False,False,UP,LEFT
360,150,450,270,DOWN,RIGHT,210,16,True,False,True,True,False,False,RIGHT,RIGHT
270,410,40,210,UP,LEFT,430,45,True,True,True,False,False,False,UP,UP
440,450,380,200,UP,LEFT,310,59,False,True,True,True,False,False,LEFT,LEFT
80,30,400,20,UP,RIGHT,330,8,True,False,True,True,True,False,RIGHT,RIGHT
170,170,280,160,UP,RIGHT,120,32,False,True,True,True,False,False,LEFT,LEFT
170,90,50,250,DOWN,LEFT,280,7,True,True,True,False,True,False,UP,UP
140,50,120,50,EQUAL,LEFT,20,27,False,True,True,True,False,False,LEFT,LEFT
320,140,120,50,UP,LEFT,290,27,True,True,True,False,True,False,UP,UP
290,150,460,20,UP,RIGHT,300,18,True,False,True,True,True,False,RIGHT,RIGHT
420,70,100,370,DOWN,LEFT,620,9,True,True,False,True,False,False,DOWN,DOWN
400,80,440,80,EQUAL,RIGHT,40,60,True,False,True,True,True,False,RIGHT,RIGHT
100,350,130,70,UP,RIGHT,310,13,True,True,True,False,True,False,UP,UP
30,300,430,320,DOWN,RIGHT,420,46,True,True,False,True,True,False,DOWN,DOWN
300,90,170,100,DOWN,LEFT,140,6,False,True,True,True,False,False,LEFT,LEFT
250,160,280,160,EQUAL,RIGHT,30,32,True,False,True,False,False,False,RIGHT,RIGHT
230,300,290,50,UP,RIGHT,310,42,True,False,True,True,False,False,RIGHT,RIGHT
210,440,350,310,UP,RIGHT,270,23,True,False,True,True,False,False,RIGHT,RIGHT
170,190,460,440,DOWN,RIGHT,540,58,True,False,True,True,True,False,RIGHT,RIGHT
220,120,30,440,DOWN,LEFT,510,12,True,True,False,True,False,False,DOWN,LEFT
410,450,380,200,UP,LEFT,280,59,False,True,True,True,False,False,LEFT,LEFT
40,200,30,440,DOWN,LEFT,250,12,True,True,False,True,False,False,DOWN,DOWN
390,340,360,430,DOWN,LEFT,120,56,True,True,False,True,False,False,DOWN,DOWN
90,320,80,410,DOWN,LEFT,100,34,True,False,True,True,False,False,RIGHT,RIGHT
140,210,260,150,UP,RIGHT,180,15,True,True,True,False,True,False,UP,UP
50,220,400,20,UP,RIGHT,550,8,True,True,True,False,True,False,UP,UP
460,90,460,20,UP,EQUAL,70,18,True,True,True,False,False,False,UP,UP
400,330,440,370,DOWN,RIGHT,80,37,True,False,True,True,False,False,RIGHT,RIGHT
320,390,320,270,UP,EQUAL,120,26,True,True,True,False,True,False,UP,UP
90,280,10,460,DOWN,LEFT,260,25,False,True,True,True,True,False,LEFT,LEFT
310,130,390,170,DOWN,RIGHT,120,49,True,False,False,True,True,False,DOWN,RIGHT
240,50,390,80,DOWN,RIGHT,180,55,True,False,True,True,False,False,RIGHT,RIGHT
230,70,270,120,DOWN,RIGHT,90,30,True,False,True,True,False,False,RIGHT,RIGHT
370,270,370,330,DOWN,EQUAL,60,51,True,True,False,True,False,False,DOWN,DOWN
130,210,40,400,DOWN,LEFT,280,39,False,True,True,True,False,False,LEFT,LEFT
160,330,80,410,DOWN,LEFT,160,34,True,True,False,True,False,False,DOWN,DOWN
50,380,210,440,DOWN,RIGHT,220,44,True,True,True,False,True,False,UP,UP
70,70,180,80,DOWN,RIGHT,120,11,True,True,False,True,False,False,DOWN,DOWN
110,420,160,410,UP,RIGHT,60,54,False,True,True,True,True,False,LEFT,LEFT
100,370,110,440,DOWN,RIGHT,80,22,True,True,False,True,False,False,DOWN,DOWN
130,360,100,50,UP,LEFT,340,52,False,True,True,True,False,False,LEFT,LEFT
420,160,340,300,DOWN,LEFT,220,5,True,True,False,True,False,False,DOWN,DOWN
440,190,460,440,DOWN,RIGHT,270,58,True,False,True,True,True,False,RIGHT,RIGHT
70,240,100,10,UP,RIGHT,260,10,True,True,True,False,True,False,UP,UP
160,120,30,440,DOWN,LEFT,450,12,False,True,True,True,False,False,LEFT,LEFT
230,170,280,160,UP,RIGHT,60,32,False,True,True,True,False,False,LEFT,LEFT
110,230,100,50,UP,LEFT,190,52,True,True,True,False,True,False,UP,UP
50,140,400,20,UP,RIGHT,470,8,True,True,True,False,True,False,UP,UP
100,380,130,70,UP,RIGHT,340,13,True,True,True,False,True,False,UP,UP
370,10,190,190,DOWN,LEFT,360,19,False,True,True,True,False,False,LEFT,LEFT
390,210,360,430,DOWN,LEFT,250,56,True,True,False,True,False,False,DOWN,DOWN
430,430,40,240,UP,LEFT,580,57,True,False,True,True,False,False,RIGHT,UP
290,120,280,160,DOWN,LEFT,50,32,True,True,False,True,False,False,DOWN,DOWN
290,360,390,260,UP,RIGHT,200,38,True,True,True,False,True,False,UP,UP
90,10,180,80,DOWN,RIGHT,160,11,False,True,True,True,False,False,LEFT,LEFT
290,100,370,230,DOWN,RIGHT,210,50,True,True,False,True,True,True,DOWN,RIGHT
140,220,260,150,UP,RIGHT,190,15,True,False,True,True,True,False,RIGHT,UP
50,390,210,440,DOWN,RIGHT,210,44,True,True,True,False,True,False,UP,UP
320,180,120,50,UP,LEFT,330,27,True,True,True,False,True,False,UP,UP
340,240,170,100,UP,LEFT,310,6,True,True,True,False,True,False,UP,UP
180,40,280,160,DOWN,RIGHT,220,32,True,False,True,True,True,False,RIGHT,RIGHT
100,50,180,360,EQUAL,EQUAL,390,53,True,True,True,False,False,False,UP,RIGHT
120,400,160,410,DOWN,RIGHT,50,54,True,False,True,True,True,True,RIGHT,RIGHT
380,430,40,240,UP,LEFT,530,57,True,False,False,True,False,False,RIGHT,RIGHT
390,170,360,430,DOWN,LEFT,290,56,True,True,False,True,False,False,DOWN,DOWN
390,90,360,430,DOWN,LEFT,370,56,True,True,False,True,False,False,DOWN,DOWN
120,0,130,10,DOWN,RIGHT,20,3,False,True,False,True,False,False,LEFT,DOWN
20,420,30,410,UP,RIGHT,20,41,True,True,False,True,True,False,DOWN,RIGHT
60,240,80,410,DOWN,RIGHT,190,34,True,True,False,True,True,True,DOWN,DOWN
370,150,450,270,DOWN,RIGHT,200,16,True,False,True,True,False,False,RIGHT,RIGHT
320,250,310,120,UP,LEFT,140,48,True,True,True,False,False,False,UP,UP
290,50,390,80,DOWN,RIGHT,130,55,True,False,True,True,False,False,RIGHT,RIGHT
100,300,290,50,UP,RIGHT,440,42,True,False,True,True,False,False,RIGHT,RIGHT
100,80,180,80,EQUAL,RIGHT,80,11,True,False,True,True,True,False,RIGHT,RIGHT
190,220,460,190,UP,RIGHT,300,20,True,True,False,True,False,False,DOWN,DOWN
420,150,100,370,DOWN,LEFT,540,9,True,True,False,True,False,False,DOWN,DOWN
390,200,390,170,UP,EQUAL,30,49,False,True,True,False,True,True,UP,UP
400,310,430,320,DOWN,RIGHT,40,46,True,False,True,True,True,False,RIGHT,RIGHT
280,290,280,210,UP,EQUAL,80,17,True,True,True,False,True,False,UP,UP
420,90,100,370,DOWN,LEFT,600,9,True,True,False,True,False,False,DOWN,DOWN
280,30,400,20,UP,RIGHT,130,8,True,False,True,True,False,False,RIGHT,RIGHT
400,150,460,20,UP,RIGHT,190,18,True,False,True,True,True,False,RIGHT,RIGHT
280,40,120,50,DOWN,LEFT,170,27,False,True,True,True,True,False,LEFT,LEFT
420,180,100,370,DOWN,LEFT,510,9,True,True,False,True,False,False,DOWN,DOWN
430,380,280,450,DOWN,LEFT,220,47,True,True,False,True,False,False,DOWN,DOWN
270,420,40,210,UP,LEFT,440,45,True,True,True,False,False,False,UP,UP
400,230,40,240,DOWN,LEFT,370,57,False,True,True,True,True,False,LEFT,LEFT
230,440,310,120,UP,RIGHT,400,48,True,True,True,False,True,False,UP,UP
270,370,40,210,UP,LEFT,390,45,True,True,True,False,False,False,UP,UP
380,230,150,260,DOWN,LEFT,260,21,True,True,False,True,True,False,DOWN,DOWN
10,340,10,460,DOWN,EQUAL,120,25,True,True,False,True,True,False,DOWN,DOWN
90,90,10,110,DOWN,LEFT,100,28,True,True,False,True,False,False,DOWN,LEFT
90,70,220,70,EQUAL,RIGHT,130,29,True,False,True,True,False,False,RIGHT,RIGHT
180,230,40,240,DOWN,LEFT,150,57,False,True,True,True,True,False,LEFT,LEFT
70,10,100,10,EQUAL,RIGHT,30,10,True,True,True,False,True,False,UP,UP
190,190,460,440,DOWN,RIGHT,520,58,True,False,True,True,True,False,RIGHT,RIGHT
460,220,460,190,UP,EQUAL,30,20,True,True,True,False,False,False,UP,UP
30,380,30,440,DOWN,EQUAL,60,12,True,True,False,True,False,False,DOWN,DOWN
280,260,280,210,UP,EQUAL,50,17,True,True,True,False,True,False,UP,UP
190,410,220,360,UP,RIGHT,80,40,True,False,True,True,True,False,RIGHT,RIGHT
320,110,120,50,UP,LEFT,260,27,True,True,True,False,True,False,UP,UP
320,290,320,270,UP,EQUAL,20,26,True,True,True,False,True,False,UP,UP
390,150,450,270,DOWN,RIGHT,180,16,True,False,True,True,False,False,RIGHT,RIGHT
190,370,210,440,DOWN,RIGHT,90,44,True,True,False,True,True,False,DOWN,DOWN
10,180,10,110,UP,EQUAL,70,28,False,True,True,True,False,False,LEFT,UP
160,70,160,420,DOWN,EQUAL,350,43,True,True,False,True,True,False,DOWN,DOWN
180,160,180,360,DOWN,EQUAL,200,53,True,True,False,True,True,False,DOWN,DOWN
420,90,340,300,DOWN,LEFT,290,5,True,True,False,True,False,False,DOWN,DOWN
390,170,370,230,EQUAL,EQUAL,80,50,False,True,True,False,True,True,UP,UP
380,280,380,200,UP,EQUAL,80,59,True,True,True,False,True,False,UP,UP
190,310,210,440,DOWN,RIGHT,150,44,True,True,False,True,True,False,DOWN,DOWN
210,0,420,20,DOWN,RIGHT,230,4,True,False,False,True,False,False,RIGHT,RIGHT
270,50,280,160,DOWN,RIGHT,120,32,True,True,False,True,True,False,DOWN,DOWN
130,120,30,440,DOWN,LEFT,420,12,False,True,True,True,False,False,LEFT,LEFT
140,190,460,440,DOWN,RIGHT,570,58,True,False,True,True,True,False,RIGHT,RIGHT
390,390,360,430,DOWN,LEFT,70,56,True,True,False,True,False,False,DOWN,DOWN
80,400,160,410,DOWN,RIGHT,90,54,True,False,True,True,True,True,RIGHT,RIGHT
370,120,370,230,DOWN,EQUAL,110,50,True,True,False,True,False,False,DOWN,DOWN
40,270,30,440,DOWN,LEFT,180,12,True,True,False,True,False,False,DOWN,DOWN
180,60,180,360,DOWN,EQUAL,300,53,True,True,False,True,True,True,DOWN,DOWN
230,140,260,150,DOWN,RIGHT,40,15,True,False,True,True,False,False,RIGHT,RIGHT
10,60,220,70,DOWN,RIGHT,220,29,True,True,True,False,False,False,UP,UP
30,390,290,50,UP,RIGHT,600,42,True,False,True,False,False,False,UP,UP
340,130,390,170,DOWN,RIGHT,90,49,True,False,True,True,False,False,RIGHT,RIGHT
50,110,400,20,UP,RIGHT,440,8,True,True,True,False,True,False,UP,UP
390,240,360,430,DOWN,LEFT,220,56,True,True,False,True,False,False,DOWN,DOWN
380,350,390,260,UP,RIGHT,100,38,True,False,True,True,True,False,RIGHT,RIGHT
260,160,280,160,EQUAL,RIGHT,20,32,True,False,True,False,False,False,RIGHT,RIGHT
410,430,40,240,UP,LEFT,560,57,True,False,True,True,False,False,RIGHT,RIGHT
370,0,420,20,DOWN,RIGHT,70,4,True,False,False,True,False,False,RIGHT,RIGHT
160,300,210,440,DOWN,RIGHT,190,44,True,False,True,True,True,False,RIGHT,RIGHT
60,70,60,180,DOWN,EQUAL,110,14,True,True,False,True,True,False,DOWN,DOWN
130,20,130,10,UP,EQUAL,10,3,True,True,True,False,True,False,UP,UP
190,370,100,370,EQUAL,LEFT,90,9,False,True,True,True,True,False,LEFT,LEFT
110,350,100,50,UP,LEFT,310,52,True,True,True,False,True,False,UP,UP
340,160,170,100,UP,LEFT,230,6,True,True,True,False,True,False,UP,UP
280,160,20,330,EQUAL,EQUAL,430,33,True,False,True,True,False,False,RIGHT,RIGHT
270,450,310,120,UP,RIGHT,370,48,False,True,True,True,False,False,LEFT,LEFT
260,0,420,20,DOWN,RIGHT,180,4,True,False,False,True,False,False,RIGHT,RIGHT
380,90,440,80,UP,RIGHT,70,60,True,True,True,False,True,False,UP,UP
290,440,350,310,UP,RIGHT,190,23,True,False,True,True,False,False,RIGHT,RIGHT
280,90,170,100,DOWN,LEFT,120,6,False,True,True,True,False,False,LEFT,LEFT
180,370,160,410,DOWN,LEFT,60,54,True,True,False,True,True,False,DOWN,DOWN
410,330,440,370,DOWN,RIGHT,70,37,True,False,True,True,False,False,RIGHT,RIGHT
10,410,10,460,DOWN,EQUAL,50,25,True,True,False,True,True,False,DOWN,DOWN
290,100,290,50,UP,EQUAL,50,42,True,True,True,False,False,False,UP,UP
160,0,130,10,DOWN,LEFT,40,3,False,True,False,True,False,False,LEFT,LEFT
170,60,50,250,DOWN,LEFT,310,7,True,True,True,False,True,False,UP,RIGHT
400,150,390,170,DOWN,LEFT,30,49,True,True,False,True,False,False,DOWN,DOWN
190,150,280,160,DOWN,RIGHT,100,32,True,False,True,True,True,True,RIGHT,RIGHT
200,440,210,440,EQUAL,RIGHT,10,44,True,False,True,True,False,False,RIGHT,RIGHT
120,90,100,10,UP,LEFT,100,10,True,True,False,True,True,False,DOWN,DOWN
250,210,40,400,DOWN,LEFT,400,39,False,True,True,True,False,False,LEFT,LEFT
450,80,120,80,EQUAL,LEFT,330,61,True,False,True,True,True,True,RIGHT,DOWN
210,330,20,330,EQUAL,LEFT,190,33,False,True,True,True,False,False,LEFT,LEFT
160,130,390,80,UP,RIGHT,280,55,True,True,True,False,False,False,UP,UP
310,450,280,450,EQUAL,LEFT,30,47,False,True,True,True,False,False,LEFT,LEFT
80,420,270,380,UP,RIGHT,230,35,True,True,False,True,False,False,DOWN,DOWN
390,310,340,300,UP,LEFT,60,5,False,True,True,True,True,False,LEFT,LEFT
390,110,360,430,DOWN,LEFT,350,56,True,True,False,True,False,False,DOWN,DOWN
220,210,40,400,DOWN,LEFT,370,39,False,True,True,True,False,False,LEFT,LEFT
150,300,290,50,UP,RIGHT,390,42,True,False,True,True,False,False,RIGHT,RIGHT
310,430,360,430,EQUAL,RIGHT,50,56,True,False,False,True,False,False,RIGHT,RIGHT
420,0,420,20,DOWN,EQUAL,20,4,True,False,False,True,False,False,RIGHT,DOWN
190,140,260,150,DOWN,RIGHT,80,15,True,False,True,True,False,False,RIGHT,RIGHT
190,50,390,80,DOWN,RIGHT,230,55,True,False,True,True,False,False,RIGHT,RIGHT
320,300,320,270,UP,EQUAL,30,26,True,True,True,False,True,False,UP,UP
420,300,340,300,EQUAL,LEFT,80,5,True,True,False,True,False,False,DOWN,DOWN
10,390,10,460,DOWN,EQUAL,70,25,True,True,False,True,True,False,DOWN,DOWN
380,380,380,200,UP,EQUAL,180,59,True,True,True,False,True,True,UP,UP
380,80,440,80,EQUAL,RIGHT,60,60,True,True,True,False,True,False,UP,RIGHT
330,430,390,260,UP,RIGHT,230,38,False,True,True,True,True,False,LEFT,LEFT
420,180,340,300,DOWN,LEFT,200,5,True,True,False,True,False,False,DOWN,DOWN
120,410,220,360,UP,RIGHT,150,40,True,False,True,True,True,False,RIGHT,RIGHT
20,330,80,410,EQUAL,EQUAL,140,34,False,True,True,True,False,False,LEFT,LEFT
160,280,390,80,UP,RIGHT,430,55,True,True,True,False,False,False,UP,UP
20,130,10,110,UP,LEFT,30,28,True,True,False,True,False,False,DOWN,DOWN
320,400,320,270,UP,EQUAL,130,26,True,True,True,False,True,False,UP,UP
430,230,460,190,UP,RIGHT,70,20,True,False,True,True,False,False,RIGHT,RIGHT
370,280,370,330,DOWN,EQUAL,50,51,True,True,False,True,False,False,DOWN,DOWN
400,210,390,170,UP,LEFT,50,49,True,True,False,True,False,False,DOWN,DOWN
270,230,40,210,UP,LEFT,250,45,True,True,True,False,False,False,UP,UP
420,270,340,300,DOWN,LEFT,110,5,True,True,False,True,False,False,DOWN,DOWN
140,150,160,420,DOWN,RIGHT,290,43,True,True,False,True,False,False,DOWN,DOWN
420,280,340,300,DOWN,LEFT,100,5,True,True,False,True,False,False,DOWN,DOWN
220,80,30,440,DOWN,LEFT,550,12,True,False,True,True,True,False,RIGHT,DOWN
20,220,80,410,DOWN,RIGHT,250,34,True,False,True,True,True,False,RIGHT,RIGHT
130,260,50,250,UP,LEFT,90,7,False,True,True,True,True,False,LEFT,LEFT
20,310,30,410,DOWN,RIGHT,110,41,True,True,False,True,True,False,DOWN,DOWN
110,0,100,10,DOWN,LEFT,20,10,True,False,False,True,True,False,RIGHT,RIGHT
70,50,100,10,UP,RIGHT,70,10,True,True,True,False,True,False,UP,UP
180,240,180,360,DOWN,EQUAL,120,53,True,True,False,True,True,False,DOWN,DOWN
170,50,130,10,UP,LEFT,80,3,True,False,True,True,False,False,RIGHT,RIGHT
340,140,170,100,UP,LEFT,210,6,True,True,True,False,True,False,UP,UP
90,440,130,70,UP,RIGHT,410,13,True,False,True,True,False,False,RIGHT,RIGHT
290,240,290,50,UP,EQUAL,190,42,True,True,True,False,False,False,UP,UP
20,300,30,410,DOWN,RIGHT,120,41,True,True,False,True,True,False,DOWN,DOWN
120,30,400,20,UP,RIGHT,290,8,True,False,True,True,True,False,RIGHT,RIGHT
260,40,120,50,DOWN,LEFT,150,27,False,True,True,True,True,False,LEFT,LEFT
450,240,120,80,UP,LEFT,490,61,True,True,False,True,True,False,DOWN,RIGHT
80,450,270,380,UP,RIGHT,260,35,True,True,False,True,False,False,DOWN,RIGHT
390,160,370,230,DOWN,LEFT,90,50,False,True,True,False,True,True,UP,LEFT
90,240,40,240,EQUAL,LEFT,50,57,False,True,True,True,False,False,LEFT,LEFT
340,190,370,230,DOWN,RIGHT,70,50,True,True,False,True,False,False,DOWN,DOWN
130,50,120,50,EQUAL,LEFT,10,27,False,True,True,True,False,False,LEFT,LEFT
320,290,310,120,UP,LEFT,180,48,True,True,True,False,False,False,UP,UP
390,240,40,400,DOWN,LEFT,510,39,True,True,True,False,False,False,UP,UP
70,210,40,210,EQUAL,LEFT,30,45,False,True,True,True,True,False,LEFT,LEFT
150,350,160,420,DOWN,RIGHT,80,43,True,True,False,True,False,False,DOWN,DOWN
160,70,390,80,DOWN,RIGHT,240,55,True,True,True,False,False,False,UP,UP
340,210,170,100,UP,LEFT,280,6,True,True,True,False,True,False,UP,UP
20,370,30,410,DOWN,RIGHT,50,41,True,True,False,True,True,False,DOWN,DOWN
270,370,300,330,UP,RIGHT,70,36,True,True,True,False,True,False,UP,UP
70,450,210,440,UP,RIGHT,150,44,False,True,True,True,False,False,LEFT,LEFT
280,300,290,50,UP,RIGHT,260,42,True,False,True,True,False,False,RIGHT,RIGHT
80,270,110,440,DOWN,RIGHT,200,22,True,True,False,True,False,False,DOWN,DOWN
310,360,100,50,UP,LEFT,520,52,False,True,True,True,False,False,LEFT,LEFT
430,190,460,440,DOWN,RIGHT,280,58,True,False,True,True,True,False,RIGHT,RIGHT
390,250,40,400,DOWN,LEFT,500,39,True,True,True,False,False,False,UP,UP
280,120,270,120,EQUAL,LEFT,10,30,True,True,False,True,False,False,DOWN,LEFT
200,470,320,270,UP,RIGHT,320,26,True,False,True,False,True,False,RIGHT,RIGHT
390,180,390,170,UP,EQUAL,10,49,False,True,True,False,True,True,UP,UP
20,330,30,410,DOWN,RIGHT,90,41,True,True,False,True,True,False,DOWN,DOWN
350,50,390,80,DOWN,RIGHT,70,55,True,False,True,True,False,False,RIGHT,RIGHT
240,470,320,270,UP,RIGHT,280,26,True,False,True,False,True,False,RIGHT,RIGHT
120,440,350,310,UP,RIGHT,360,23,True,False,True,True,False,False,RIGHT,RIGHT
150,170,280,160,UP,RIGHT,140,32,False,True,True,True,False,False,LEFT,LEFT
180,190,460,440,DOWN,RIGHT,530,58,True,False,True,True,True,False,RIGHT,RIGHT
400,430,40,240,UP,LEFT,550,57,True,False,True,True,False,False,RIGHT,RIGHT
30,220,80,410,DOWN,RIGHT,240,34,True,False,True,True,True,False,RIGHT,RIGHT
160,260,390,80,UP,RIGHT,410,55,True,True,True,False,False,False,UP,UP
200,90,170,100,DOWN,LEFT,40,6,False,True,True,True,False,False,LEFT,LEFT
150,370,100,370,EQUAL,LEFT,50,9,False,True,True,True,True,False,LEFT,LEFT
180,190,180,360,DOWN,EQUAL,170,53,True,True,False,True,True,False,DOWN,DOWN
240,230,40,240,DOWN,LEFT,210,57,False,True,True,True,True,False,LEFT,LEFT
400,20,100,370,EQUAL,EQUAL,650,9,True,False,True,True,False,False,RIGHT,RIGHT
330,90,170,100,DOWN,LEFT,170,6,False,True,True,True,False,False,LEFT,LEFT
100,400,160,410,DOWN,RIGHT,70,54,True,False,True,True,True,True,RIGHT,RIGHT
290,130,290,50,UP,EQUAL,80,42,True,True,True,False,False,False,UP,UP
320,280,320,270,UP,EQUAL,10,26,True,True,True,False,True,False,UP,UP
380,310,430,320,DOWN,RIGHT,60,46,True,False,True,True,True,False,RIGHT,RIGHT
370,430,40,240,UP,LEFT,520,57,True,False,False,True,False,False,RIGHT,RIGHT
320,370,310,120,UP,LEFT,260,48,True,True,True,False,False,False,UP,UP
460,140,460,20,UP,EQUAL,120,18,True,True,True,False,False,False,UP,UP
180,380,160,410,DOWN,LEFT,50,54,True,True,False,True,True,False,DOWN,DOWN
200,80,30,440,DOWN,LEFT,530,12,True,False,True,True,True,False,RIGHT,RIGHT
340,130,170,100,UP,LEFT,200,6,True,True,True,False,True,False,UP,UP
440,160,150,260,DOWN,LEFT,390,21,False,True,True,True,True,False,LEFT,LEFT
70,400,160,410,DOWN,RIGHT,100,54,True,True,True,False,True,True,UP,RIGHT
400,150,450,270,DOWN,RIGHT,170,16,True,False,True,True,False,False,RIGHT,RIGHT
290,370,390,260,UP,RIGHT,210,38,True,True,True,False,True,False,UP,UP
90,420,160,410,UP,RIGHT,80,54,False,True,True,True,True,False,LEFT,LEFT
460,40,460,20,UP,EQUAL,20,18,True,True,True,False,False,False,UP,UP
190,80,30,440,DOWN,LEFT,520,12,True,False,True,True,True,False,RIGHT,RIGHT
220,310,430,320,DOWN,RIGHT,220,46,True,False,True,True,True,False,RIGHT,RIGHT
10,330,80,410,DOWN,RIGHT,150,34,False,True,True,True,False,False,LEFT,UP
90,450,210,440,UP,RIGHT,130,44,False,True,True,True,False,False,LEFT,LEFT
10,240,80,410,DOWN,RIGHT,240,34,True,True,True,False,True,False,UP,UP
370,350,390,260,UP,RIGHT,110,38,True,False,True,True,True,False,RIGHT,RIGHT
340,230,370,230,EQUAL,RIGHT,30,50,True,True,False,True,False,False,DOWN,DOWN
410,230,40,240,DOWN,LEFT,380,57,False,True,True,True,True,False,LEFT,LEFT
50,450,210,440,UP,RIGHT,170,44,False,True,True,True,False,False,LEFT,UP
90,310,110,440,DOWN,RIGHT,150,22,True,False,True,True,False,False,RIGHT,RIGHT
290,330,20,330,EQUAL,LEFT,270,33,False,True,True,True,False,False,LEFT,LEFT
290,80,290,50,UP,EQUAL,30,42,True,True,True,False,False,False,UP,UP
340,260,170,100,UP,LEFT,330,6,True,True,True,False,True,False,UP,UP
120,450,270,380,UP,RIGHT,220,35,True,False,True,True,False,False,RIGHT,RIGHT
310,410,310,120,UP,EQUAL,290,48,True,False,True,True,True,True,RIGHT,RIGHT
320,260,150,260,EQUAL,LEFT,170,21,False,True,True,True,False,False,LEFT,LEFT
130,170,130,70,UP,EQUAL,100,13,True,True,True,False,False,False,UP,UP
190,170,280,160,UP,RIGHT,100,32,False,True,True,True,False,False,LEFT,LEFT
340,360,100,50,UP,LEFT,550,52,False,True,True,True,False,False,LEFT,LEFT
290,220,290,50,UP,EQUAL,170,42,True,True,True,False,False,False,UP,UP
420,290,340,300,DOWN,LEFT,90,5,True,True,False,True,False,False,DOWN,DOWN
100,220,260,150,UP,RIGHT,230,15,True,False,True,True,True,False,RIGHT,RIGHT
120,330,110,440,DOWN,LEFT,120,22,True,True,False,True,False,False,DOWN,DOWN
300,330,440,370,EQUAL,EQUAL,180,37,True,False,True,True,False,False,RIGHT,RIGHT
320,320,20,330,DOWN,LEFT,310,33,True,True,False,True,False,False,DOWN,DOWN
260,440,350,310,UP,RIGHT,220,23,True,False,True,True,False,False,RIGHT,RIGHT
280,410,310,120,UP,RIGHT,320,48,True,False,True,True,True,True,RIGHT,RIGHT
10,310,80,410,DOWN,RIGHT,170,34,True,True,True,False,True,False,UP,UP
370,450,280,450,EQUAL,LEFT,90,47,False,True,True,True,False,False,LEFT,LEFT
90,300,290,50,UP,RIGHT,450,42,True,False,True,True,False,False,RIGHT,RIGHT
40,250,40,400,DOWN,EQUAL,150,39,True,True,False,True,True,False,DOWN,DOWN
130,140,130,70,UP,EQUAL,70,13,True,True,True,False,False,False,UP,UP
180,110,180,360,DOWN,EQUAL,250,53,True,True,False,True,True,False,DOWN,DOWN
120,0,100,10,DOWN,LEFT,30,10,True,False,False,True,True,False,RIGHT,DOWN
280,370,100,370,EQUAL,LEFT,180,9,False,True,True,True,True,False,LEFT,LEFT
190,410,210,440,DOWN,RIGHT,50,44,True,True,False,True,True,False,DOWN,DOWN
390,310,390,260,UP,EQUAL,50,38,True,True,True,False,False,False,UP,UP
260,90,170,100,DOWN,LEFT,100,6,False,True,True,True,False,False,LEFT,LEFT
310,90,370,230,DOWN,RIGHT,200,50,False,True,True,True,True,False,LEFT,LEFT
70,170,100,10,UP,RIGHT,190,10,True,True,True,False,True,False,UP,UP
10,30,220,70,DOWN,RIGHT,250,29,True,True,True,False,False,False,UP,RIGHT
190,420,210,440,DOWN,RIGHT,40,44,True,False,True,True,False,False,RIGHT,RIGHT
130,100,130,70,UP,EQUAL,30,13,True,True,True,False,False,False,UP,UP
340,220,370,230,DOWN,RIGHT,40,50,True,True,False,True,False,False,DOWN,DOWN
330,440,350,310,UP,RIGHT,150,23,True,False,True,True,False,False,RIGHT,RIGHT
460,450,380,200,UP,LEFT,330,59,True,True,False,True,False,False,DOWN,LEFT
340,240,370,230,UP,RIGHT,40,50,True,True,False,True,False,False,DOWN,RIGHT
220,310,30,410,DOWN,LEFT,290,41,True,True,True,False,True,False,UP,UP
50,240,400,20,UP,RIGHT,570,8,True,True,True,False,True,False,UP,UP
170,140,260,150,DOWN,RIGHT,100,15,True,False,True,True,False,False,RIGHT,RIGHT
60,310,430,320,DOWN,RIGHT,380,46,True,False,True,True,True,False,RIGHT,RIGHT
60,450,210,440,UP,RIGHT,160,44,False,True,True,True,False,False,LEFT,LEFT
460,240,120,80,UP,LEFT,500,61,True,False,True,True,False,False,RIGHT,UP
420,150,450,270,DOWN,RIGHT,150,16,True,False,True,True,False,False,RIGHT,RIGHT
390,310,360,430,DOWN,LEFT,150,56,True,True,False,True,False,False,DOWN,DOWN
290,250,290,50,UP,EQUAL,200,42,True,True,True,False,False,False,UP,UP
290,30,160,420,DOWN,LEFT,520,43,True,True,True,False,False,False,UP,LEFT
320,170,120,50,UP,LEFT,320,27,True,True,True,False,True,False,UP,UP
70,410,220,360,UP,RIGHT,200,40,True,False,True,True,True,False,RIGHT,RIGHT
430,390,280,450,DOWN,LEFT,210,47,True,True,False,True,False,False,DOWN,DOWN
380,290,380,200,UP,EQUAL,90,59,True,True,True,False,True,True,UP,UP
180,300,290,50,UP,RIGHT,360,42,True,False,True,True,False,False,RIGHT,RIGHT
220,410,220,360,UP,EQUAL,50,40,True,False,True,True,True,False,RIGHT,UP
380,150,460,20,UP,RIGHT,210,18,True,False,True,True,True,False,RIGHT,RIGHT
100,320,80,410,DOWN,LEFT,110,34,True,False,True,True,False,False,RIGHT,RIGHT
120,420,30,410,UP,LEFT,100,41,True,False,True,True,True,False,RIGHT,RIGHT
80,300,110,440,DOWN,RIGHT,170,22,True,True,False,True,False,False,DOWN,DOWN
270,10,190,190,DOWN,LEFT,260,19,False,True,True,True,False,False,LEFT,LEFT
250,90,170,100,DOWN,LEFT,90,6,False,True,True,True,False,False,LEFT,LEFT
180,150,180,360,DOWN,EQUAL,210,53,True,True,False,True,True,False,DOWN,DOWN
90,260,110,440,DOWN,RIGHT,200,22,False,True,True,True,False,False,LEFT,LEFT
260,330,20,330,EQUAL,LEFT,240,33,False,True,True,True,False,False,LEFT,LEFT
80,280,30,410,DOWN,LEFT,180,41,False,True,True,True,True,False,LEFT,LEFT
440,430,390,260,UP,LEFT,220,38,True,True,False,True,False,True,DOWN,LEFT
10,320,80,410,DOWN,RIGHT,160,34,True,True,True,False,True,False,UP,UP
40,330,20,330,EQUAL,LEFT,20,33,False,True,True,True,False,False,LEFT,LEFT
260,300,290,50,UP,RIGHT,280,42,True,False,True,True,False,False,RIGHT,RIGHT
330,210,40,400,DOWN,LEFT,480,39,False,True,True,True,False,False,LEFT,LEFT
410,160,150,260,DOWN,LEFT,360,21,False,True,True,True,True,False,LEFT,LEFT
190,300,210,440,DOWN,RIGHT,160,44,True,False,True,True,True,True,RIGHT,DOWN
180,120,190,190,DOWN,RIGHT,80,19,True,True,False,True,True,False,DOWN,RIGHT
450,310,460,440,DOWN,RIGHT,140,58,True,True,False,True,True,False,DOWN,DOWN
120,230,130,70,UP,RIGHT,170,13,True,True,True,False,False,False,UP,UP
290,190,460,440,DOWN,RIGHT,420,58,True,False,True,True,True,False,RIGHT,RIGHT
80,0,100,10,DOWN,RIGHT,30,10,True,False,False,True,True,False,RIGHT,RIGHT
250,310,430,320,DOWN,RIGHT,190,46,True,False,True,True,True,False,RIGHT,RIGHT
390,130,390,170,DOWN,EQUAL,40,49,True,False,True,True,False,False,RIGHT,RIGHT
190,30,130,10,UP,LEFT,80,3,True,True,True,False,False,False,UP,UP
290,60,290,50,UP,EQUAL,10,42,True,True,True,False,False,False,UP,UP
230,0,420,20,DOWN,RIGHT,210,4,True,False,False,True,False,False,RIGHT,RIGHT
290,230,290,50,UP,EQUAL,180,42,True,True,True,False,False,False,UP,UP
180,70,220,70,EQUAL,RIGHT,40,29,True,False,True,True,False,False,RIGHT,RIGHT
440,420,390,260,UP,LEFT,210,38,True,True,False,True,False,False,DOWN,DOWN
440,370,390,260,EQUAL,EQUAL,160,38,True,True,False,True,False,False,DOWN,DOWN
20,470,320,270,UP,RIGHT,500,26,True,False,True,False,True,False,RIGHT,RIGHT
220,350,30,410,DOWN,LEFT,250,41,True,True,True,False,True,False,UP,UP
150,50,120,50,EQUAL,LEFT,30,27,False,True,True,True,False,False,LEFT,LEFT
280,30,160,420,DOWN,LEFT,510,43,False,True,True,True,False,False,LEFT,LEFT
80,410,220,360,UP,RIGHT,190,40,True,False,True,True,True,False,RIGHT,RIGHT
50,30,400,20,UP,RIGHT,360,8,True,True,True,False,True,False,UP,RIGHT
110,210,40,210,EQUAL,LEFT,70,45,False,True,True,True,True,False,LEFT,LEFT
340,350,390,260,UP,RIGHT,140,38,True,False,True,True,True,True,RIGHT,RIGHT
80,430,270,380,UP,RIGHT,240,35,True,True,False,True,False,False,DOWN,DOWN
130,320,80,410,DOWN,LEFT,140,34,True,False,True,True,False,False,RIGHT,RIGHT
420,300,100,370,DOWN,LEFT,390,9,True,True,False,True,False,False,DOWN,DOWN
110,410,220,360,UP,RIGHT,160,40,True,False,True,True,True,False,RIGHT,RIGHT
350,90,370,230,DOWN,RIGHT,160,50,False,True,True,True,True,False,LEFT,LEFT
180,80,30,440,EQUAL,EQUAL,510,12,True,False,True,True,True,False,RIGHT,RIGHT
230,40,280,160,DOWN,RIGHT,170,32,True,False,True,True,True,False,RIGHT,RIGHT
380,100,440,80,UP,RIGHT,80,60,True,True,True,False,True,False,UP,UP
180,20,190,190,DOWN,RIGHT,180,19,True,True,False,True,True,False,DOWN,DOWN
190,360,100,50,UP,LEFT,400,52,False,True,True,True,False,False,LEFT,LEFT
340,310,340,300,UP,EQUAL,10,5,False,True,True,True,True,False,LEFT,UP
90,30,60,180,DOWN,LEFT,180,14,False,True,True,True,False,False,LEFT,LEFT
320,260,310,120,UP,LEFT,150,48,True,True,True,False,False,False,UP,UP
130,70,130,10,UP,EQUAL,60,3,True,False,True,False,True,False,UP,UP
430,90,370,230,DOWN,LEFT,200,50,False,True,True,True,True,False,LEFT,LEFT
180,120,180,360,DOWN,EQUAL,240,53,True,True,False,True,True,False,DOWN,DOWN
310,350,390,260,UP,RIGHT,170,38,True,False,True,True,True,True,RIGHT,RIGHT
300,40,120,50,DOWN,LEFT,190,27,False,True,True,True,True,False,LEFT,LEFT
440,330,440,370,DOWN,EQUAL,40,37,True,False,True,True,False,False,RIGHT,DOWN
150,260,50,250,UP,LEFT,110,7,False,True,True,True,True,False,LEFT,LEFT
30,330,290,50,UP,RIGHT,540,42,True,True,True,False,False,False,UP,UP
320,270,20,330,DOWN,LEFT,360,33,True,True,False,True,False,False,DOWN,DOWN
290,430,390,260,UP,RIGHT,270,38,False,True,True,True,True,False,LEFT,UP
400,0,420,20,DOWN,RIGHT,40,4,True,False,False,True,False,False,RIGHT,RIGHT
160,130,170,100,UP,RIGHT,40,6,True,True,False,True,False,False,DOWN,DOWN
120,260,110,440,DOWN,LEFT,190,22,False,True,True,True,False,False,LEFT,LEFT
100,370,100,10,EQUAL,EQUAL,360,10,False,True,True,True,True,False,LEFT,LEFT
390,310,430,320,DOWN,RIGHT,50,46,True,False,True,True,True,False,RIGHT,RIGHT
60,410,30,410,EQUAL,LEFT,30,41,False,True,True,False,True,True,LEFT,LEFT
60,230,80,410,DOWN,RIGHT,200,34,True,True,False,True,True,True,DOWN,DOWN
100,210,40,400,DOWN,LEFT,250,39,False,True,True,True,False,False,LEFT,LEFT
260,450,270,380,UP,RIGHT,80,35,True,False,True,True,False,False,RIGHT,RIGHT
290,40,120,50,DOWN,LEFT,180,27,False,True,True,True,True,False,LEFT,LEFT
450,220,120,80,UP,LEFT,470,61,True,True,False,True,True,False,DOWN,DOWN
260,30,160,420,DOWN,LEFT,490,43,False,True,True,True,False,False,LEFT,LEFT
420,450,380,200,UP,LEFT,290,59,False,True,True,True,False,False,LEFT,LEFT
190,90,170,100,DOWN,LEFT,30,6,False,True,True,True,False,False,LEFT,LEFT
300,90,310,120,DOWN,RIGHT,40,48,True,True,True,False,False,False,UP,UP
300,80,310,120,DOWN,RIGHT,50,48,True,True,True,False,False,False,UP,UP
310,50,310,120,DOWN,EQUAL,70,48,True,False,True,True,False,True,RIGHT,DOWN
240,140,260,150,DOWN,RIGHT,30,15,True,False,True,True,False,False,RIGHT,DOWN
370,160,370,230,DOWN,EQUAL,70,50,False,True,True,True,False,True,LEFT,LEFT
200,280,180,280,EQUAL,LEFT,20,24,False,True,True,True,True,False,LEFT,LEFT
180,80,190,190,DOWN,RIGHT,120,19,True,True,False,True,True,False,DOWN,DOWN
40,310,40,400,DOWN,EQUAL,90,39,True,True,False,True,True,False,DOWN,DOWN
420,10,190,190,DOWN,LEFT,410,19,False,True,True,True,False,False,LEFT,LEFT
220,400,220,360,UP,EQUAL,40,40,True,True,True,False,True,False,UP,UP
430,370,280,450,DOWN,LEFT,230,47,True,True,False,True,False,False,DOWN,DOWN
320,210,40,400,DOWN,LEFT,470,39,False,True,True,True,False,False,LEFT,LEFT
290,200,290,50,UP,EQUAL,150,42,True,True,True,False,False,False,UP,UP
280,300,280,210,UP,EQUAL,90,17,False,True,True,True,False,False,LEFT,UP
420,130,340,300,DOWN,LEFT,250,5,True,True,False,True,False,False,DOWN,DOWN
80,370,100,10,UP,RIGHT,380,10,False,True,True,True,True,False,LEFT,LEFT
450,380,460,440,DOWN,RIGHT,70,58,True,True,False,True,True,False,DOWN,DOWN
390,190,360,430,DOWN,LEFT,270,56,True,True,False,True,False,False,DOWN,DOWN
350,290,180,280,UP,LEFT,180,24,True,True,True,False,True,False,UP,UP
320,100,370,230,DOWN,RIGHT,180,50,True,False,False,True,True,True,RIGHT,RIGHT
320,230,310,120,UP,LEFT,120,48,True,True,True,False,False,False,UP,UP
240,280,180,280,EQUAL,LEFT,60,24,False,True,True,True,True,False,LEFT,LEFT
80,420,160,410,UP,RIGHT,90,54,False,True,True,True,True,False,LEFT,LEFT
80,280,10,460,DOWN,LEFT,250,25,False,True,True,True,True,False,LEFT,LEFT
110,230,40,240,DOWN,LEFT,80,57,False,True,True,True,True,False,LEFT,LEFT
10,130,10,110,UP,EQUAL,20,28,False,True,True,False,False,False,UP,UP
440,150,450,270,DOWN,RIGHT,130,16,True,False,True,True,False,False,RIGHT,DOWN
110,30,60,180,DOWN,LEFT,200,14,False,True,True,True,False,False,LEFT,LEFT
140,310,430,320,DOWN,RIGHT,300,46,True,False,True,True,True,False,RIGHT,RIGHT
140,360,100,50,UP,LEFT,350,52,False,True,True,True,False,False,LEFT,LEFT
180,470,320,270,UP,RIGHT,340,26,True,False,True,False,True,False,RIGHT,RIGHT
420,430,390,260,UP,LEFT,200,38,False,True,True,True,True,False,LEFT,LEFT
160,190,460,440,DOWN,RIGHT,550,58,True,False,True,True,True,False,RIGHT,RIGHT
380,240,380,200,UP,EQUAL,40,59,True,True,True,False,True,False,UP,UP
420,330,440,370,DOWN,RIGHT,60,37,True,False,True,True,False,False,RIGHT,RIGHT
420,450,280,450,EQUAL,LEFT,140,47,False,True,True,True,False,False,LEFT,LEFT
110,50,100,10,UP,LEFT,50,10,True,True,True,False,True,False,UP,UP
120,10,100,10,EQUAL,LEFT,20,10,True,True,False,True,True,False,DOWN,DOWN
120,240,130,70,UP,RIGHT,180,13,True,True,True,False,False,False,UP,UP
180,110,190,190,DOWN,RIGHT,90,19,True,True,False,True,True,False,DOWN,DOWN
320,460,320,270,UP,EQUAL,190,26,True,True,True,False,True,False,UP,UP
390,160,150,260,DOWN,LEFT,340,21,False,True,True,True,True,False,LEFT,LEFT
270,210,40,400,DOWN,LEFT,420,39,False,True,True,True,False,False,LEFT,LEFT
30,310,290,50,UP,RIGHT,520,42,True,True,True,False,False,False,UP,UP
140,240,160,420,DOWN,RIGHT,200,43,True,True,False,True,False,False,DOWN,DOWN
10,110,220,70,EQUAL,EQUAL,250,29,False,True,True,False,False,False,UP,UP
150,260,110,440,EQUAL,EQUAL,220,22,False,True,True,True,False,False,LEFT,LEFT
310,40,120,50,DOWN,LEFT,200,27,False,True,True,True,True,False,LEFT,LEFT
160,300,290,50,UP,RIGHT,380,42,True,False,True,True,False,False,RIGHT,RIGHT
140,30,400,20,UP,RIGHT,270,8,True,False,True,True,True,False,RIGHT,RIGHT
150,120,30,440,DOWN,LEFT,440,12,False,True,True,True,False,False,LEFT,LEFT
140,420,160,410,UP,RIGHT,30,54,False,True,True,True,True,False,LEFT,LEFT
340,90,370,230,DOWN,RIGHT,170,50,False,True,True,True,True,False,LEFT,LEFT
250,470,320,270,UP,RIGHT,270,26,True,False,True,False,True,False,RIGHT,RIGHT
280,110,280,160,DOWN,EQUAL,50,32,True,False,True,True,False,False,RIGHT,RIGHT
420,80,440,80,EQUAL,RIGHT,20,60,True,False,True,True,True,False,RIGHT,RIGHT
140,200,260,150,UP,RIGHT,170,15,True,True,True,False,True,False,UP,UP
450,190,370,230,DOWN,LEFT,120,50,True,True,True,False,True,False,UP,UP
250,230,460,190,UP,RIGHT,250,20,True,False,True,True,False,False,RIGHT,RIGHT
120,420,160,410,UP,RIGHT,50,54,False,True,True,True,True,False,LEFT,LEFT
460,180,150,260,DOWN,LEFT,390,21,True,True,True,False,False,False,UP,UP
150,40,280,160,DOWN,RIGHT,250,32,True,False,True,True,True,False,RIGHT,RIGHT
90,390,80,410,DOWN,LEFT,30,34,False,True,True,True,False,False,LEFT,LEFT
150,470,320,270,UP,RIGHT,370,26,True,False,True,False,True,False,RIGHT,RIGHT
140,260,50,250,UP,LEFT,100,7,False,True,True,True,True,False,LEFT,LEFT
90,210,40,210,EQUAL,LEFT,50,45,False,True,True,True,True,False,LEFT,LEFT
230,210,40,400,DOWN,LEFT,380,39,False,True,True,True,False,False,LEFT,LEFT
140,440,350,310,UP,RIGHT,340,23,True,False,True,True,False,False,RIGHT,RIGHT
160,140,170,100,UP,RIGHT,50,6,True,True,False,True,False,False,DOWN,DOWN
180,180,180,360,DOWN,EQUAL,180,53,True,True,False,True,True,False,DOWN,DOWN
70,30,180,80,DOWN,RIGHT,160,11,True,True,False,True,False,False,DOWN,DOWN
270,450,270,380,UP,EQUAL,70,35,True,False,True,True,False,False,RIGHT,UP
10,300,80,410,DOWN,RIGHT,180,34,True,True,True,False,True,False,UP,UP
150,300,210,440,DOWN,RIGHT,200,44,True,False,True,True,True,False,RIGHT,RIGHT
140,120,120,70,UP,LEFT,70,31,False,True,True,True,False,False,LEFT,LEFT
410,0,420,20,DOWN,RIGHT,30,4,True,False,False,True,False,False,RIGHT,RIGHT
180,280,180,360,DOWN,EQUAL,80,53,True,True,False,True,True,False,DOWN,DOWN
150,70,220,70,EQUAL,RIGHT,70,29,True,False,True,True,False,False,RIGHT,RIGHT
90,220,260,150,UP,RIGHT,240,15,True,False,True,True,True,False,RIGHT,RIGHT
420,110,340,300,DOWN,LEFT,270,5,True,True,False,True,False,False,DOWN,DOWN
160,280,10,460,DOWN,LEFT,330,25,False,True,True,True,True,False,LEFT,LEFT
420,120,100,370,DOWN,LEFT,570,9,True,True,False,True,False,False,DOWN,DOWN
140,190,160,420,DOWN,RIGHT,250,43,True,True,False,True,False,False,DOWN,DOWN
290,150,280,160,DOWN,LEFT,20,32,True,True,False,True,False,False,DOWN,DOWN
90,370,100,10,UP,RIGHT,370,10,False,True,True,True,True,False,LEFT,LEFT
180,300,180,360,DOWN,EQUAL,60,53,True,True,False,True,True,False,DOWN,DOWN
400,430,390,260,UP,LEFT,180,38,False,True,True,True,True,False,LEFT,LEFT
210,120,120,70,UP,LEFT,140,31,False,True,True,True,False,False,LEFT,LEFT
40,380,40,400,DOWN,EQUAL,20,39,True,True,False,True,True,False,DOWN,DOWN
320,440,350,310,UP,RIGHT,160,23,True,False,True,True,False,False,RIGHT,RIGHT
20,180,10,110,UP,LEFT,80,28,True,True,False,True,False,False,DOWN,LEFT
380,270,380,200,UP,EQUAL,70,59,True,True,True,False,True,False,UP,UP
420,200,340,300,DOWN,LEFT,180,5,True,True,False,True,False,False,DOWN,DOWN
250,450,270,380,UP,RIGHT,90,35,True,False,True,True,False,False,RIGHT,RIGHT
130,230,40,240,DOWN,LEFT,100,57,False,True,True,True,True,False,LEFT,LEFT
310,440,350,310,UP,RIGHT,170,23,True,False,True,True,False,False,RIGHT,RIGHT
160,50,180,360,DOWN,RIGHT,330,53,True,False,True,True,False,False,RIGHT,RIGHT
20,160,10,110,UP,LEFT,60,28,True,True,False,True,False,False,DOWN,DOWN
100,410,130,70,UP,RIGHT,370,13,True,True,True,False,True,False,UP,UP
290,70,290,50,UP,EQUAL,20,42,True,True,True,False,False,False,UP,UP
70,70,220,70,EQUAL,RIGHT,150,29,True,False,True,True,False,False,RIGHT,RIGHT
210,150,280,160,DOWN,RIGHT,80,32,True,False,True,True,True,True,RIGHT,RIGHT
220,450,210,440,UP,LEFT,20,44,True,True,False,True,False,False,DOWN,LEFT
80,210,40,400,DOWN,LEFT,230,39,False,True,True,True,False,False,LEFT,LEFT
40,420,30,410,UP,LEFT,20,41,True,False,True,True,True,False,RIGHT,RIGHT
390,230,360,430,DOWN,LEFT,230,56,True,True,False,True,False,False,DOWN,DOWN
420,80,340,300,DOWN,LEFT,300,5,True,True,False,True,False,False,DOWN,DOWN
420,350,100,370,DOWN,LEFT,340,9,True,True,False,True,False,False,DOWN,DOWN
320,310,310,120,UP,LEFT,200,48,True,True,True,False,False,False,UP,UP
140,250,160,420,DOWN,RIGHT,190,43,True,True,False,True,False,False,DOWN,DOWN
100,330,130,70,UP,RIGHT,290,13,True,True,True,False,True,False,UP,UP
80,220,260,150,UP,RIGHT,250,15,True,False,True,True,True,False,RIGHT,RIGHT
390,450,380,200,UP,LEFT,260,59,False,True,True,True,False,False,LEFT,LEFT
190,400,210,440,DOWN,RIGHT,60,44,True,True,False,True,True,False,DOWN,DOWN
130,180,130,70,UP,EQUAL,110,13,True,True,True,False,False,False,UP,UP
200,100,50,250,DOWN,LEFT,300,7,True,True,False,True,False,False,DOWN,DOWN
200,120,120,70,UP,LEFT,130,31,False,True,True,True,False,False,LEFT,LEFT
270,330,20,330,EQUAL,LEFT,250,33,False,True,True,True,False,False,LEFT,LEFT
320,240,310,120,UP,LEFT,130,48,True,True,True,False,False,False,UP,UP
390,160,360,430,DOWN,LEFT,300,56,True,True,False,True,False,False,DOWN,DOWN
290,110,280,160,DOWN,LEFT,60,32,True,False,True,True,False,False,RIGHT,DOWN
320,350,390,260,UP,RIGHT,160,38,True,False,True,True,True,True,RIGHT,RIGHT
310,420,360,430,DOWN,RIGHT,60,56,False,True,True,True,True,False,LEFT,LEFT
180,450,210,440,UP,RIGHT,40,44,False,True,True,True,False,False,LEFT,LEFT
200,190,460,440,DOWN,RIGHT,510,58,True,False,True,True,True,False,RIGHT,RIGHT
270,110,280,160,DOWN,RIGHT,60,32,True,True,False,True,True,False,DOWN,RIGHT
230,450,310,120,UP,RIGHT,410,48,False,True,True,True,False,False,LEFT,UP
270,330,40,210,UP,LEFT,350,45,True,True,True,False,False,False,UP,UP
250,30,160,420,DOWN,LEFT,480,43,False,True,True,True,False,False,LEFT,LEFT
320,240,120,50,UP,LEFT,390,27,True,True,True,False,True,False,UP,UP
60,180,260,150,EQUAL,EQUAL,230,15,True,True,False,True,True,False,DOWN,DOWN
230,330,20,330,EQUAL,LEFT,210,33,False,True,True,True,False,False,LEFT,LEFT
190,150,190,190,DOWN,EQUAL,40,19,True,True,False,True,False,False,DOWN,DOWN
210,210,40,210,EQUAL,LEFT,170,45,False,True,True,True,True,False,LEFT,LEFT
160,320,80,410,DOWN,LEFT,170,34,True,False,True,True,False,False,RIGHT,DOWN
120,150,280,160,DOWN,RIGHT,170,32,True,True,True,False,True,True,UP,RIGHT
370,100,370,230,DOWN,EQUAL,130,50,True,False,False,True,True,True,RIGHT,DOWN
200,360,100,50,UP,LEFT,410,52,False,True,True,True,False,False,LEFT,LEFT
420,230,40,240,DOWN,LEFT,390,57,False,True,True,True,True,False,LEFT,LEFT
210,280,30,410,DOWN,LEFT,310,41,False,True,True,True,True,False,LEFT,LEFT
450,290,460,440,DOWN,RIGHT,160,58,True,True,False,True,True,False,DOWN,DOWN
50,410,30,410,EQUAL,LEFT,20,41,False,True,True,False,True,True,LEFT,LEFT
150,380,160,420,DOWN,RIGHT,50,43,True,True,False,True,False,False,DOWN,DOWN
100,60,100,50,UP,EQUAL,10,52,True,True,True,False,False,False,UP,UP
30,280,430,320,DOWN,RIGHT,440,46,True,True,False,True,True,False,DOWN,DOWN
430,240,40,240,EQUAL,LEFT,390,57,True,True,True,False,True,False,UP,UP
270,40,280,160,DOWN,RIGHT,130,32,True,False,True,True,True,False,RIGHT,DOWN
180,140,180,360,DOWN,EQUAL,220,53,True,True,False,True,True,False,DOWN,DOWN
40,240,460,440,EQUAL,EQUAL,620,58,False,True,True,True,False,False,LEFT,LEFT
300,360,100,50,UP,LEFT,510,52,False,True,True,True,False,False,LEFT,LEFT
440,360,440,370,DOWN,EQUAL,10,37,True,True,False,True,False,False,DOWN,DOWN
180,280,10,460,EQUAL,EQUAL,350,25,False,True,True,True,True,False,LEFT,LEFT
210,450,270,380,UP,RIGHT,130,35,True,False,True,True,False,False,RIGHT,RIGHT
360,310,430,320,DOWN,RIGHT,80,46,True,False,True,True,True,False,RIGHT,RIGHT
70,100,100,10,UP,RIGHT,120,10,True,True,True,False,True,False,UP,UP
380,150,450,270,DOWN,RIGHT,190,16,True,False,True,True,False,False,RIGHT,RIGHT
10,120,10,110,UP,EQUAL,10,28,False,True,True,False,False,False,UP,UP
310,100,370,230,DOWN,RIGHT,190,50,True,False,False,True,True,True,RIGHT,RIGHT
170,120,170,100,UP,EQUAL,20,6,True,True,True,False,True,False,UP,UP
80,280,110,440,DOWN,RIGHT,190,22,True,True,False,True,False,False,DOWN,DOWN
160,370,390,80,UP,RIGHT,520,55,True,True,True,False,False,False,UP,UP
400,160,390,170,DOWN,LEFT,20,49,True,True,False,True,False,False,DOWN,DOWN
190,10,130,10,EQUAL,LEFT,60,3,True,True,True,False,False,False,UP,UP
120,80,180,80,EQUAL,RIGHT,60,11,True,False,True,True,True,False,RIGHT,RIGHT
320,310,320,270,UP,EQUAL,40,26,True,True,True,False,True,False,UP,UP
130,50,60,180,DOWN,LEFT,200,14,True,True,True,False,False,False,UP,UP
170,440,350,310,UP,RIGHT,310,23,True,False,True,True,False,False,RIGHT,RIGHT
340,280,170,100,UP,LEFT,350,6,True,True,True,False,True,False,UP,UP
420,190,100,370,DOWN,LEFT,500,9,True,True,False,True,False,False,DOWN,DOWN
160,270,390,80,UP,RIGHT,420,55,True,True,True,False,False,False,UP,UP
230,50,390,80,DOWN,RIGHT,190,55,True,False,True,True,False,False,RIGHT,RIGHT
230,210,40,210,EQUAL,LEFT,190,45,False,True,True,True,True,False,LEFT,LEFT
120,50,180,360,DOWN,RIGHT,370,53,True,False,True,True,False,False,RIGHT,RIGHT
370,200,370,230,DOWN,EQUAL,30,50,True,True,False,True,False,False,DOWN,DOWN
170,470,320,270,UP,RIGHT,350,26,True,False,True,False,True,False,RIGHT,RIGHT
390,430,40,240,UP,LEFT,540,57,True,False,False,True,False,False,RIGHT,RIGHT
360,10,190,190,DOWN,LEFT,350,19,False,True,True,True,False,False,LEFT,LEFT
10,400,10,460,DOWN,EQUAL,60,25,True,True,False,True,True,False,DOWN,DOWN
320,190,20,330,DOWN,LEFT,440,33,True,True,False,True,False,False,DOWN,DOWN
100,320,130,70,UP,RIGHT,280,13,True,True,True,False,True,False,UP,UP
250,370,100,370,EQUAL,LEFT,150,9,False,True,True,True,True,False,LEFT,LEFT
100,10,180,80,EQUAL,EQUAL,150,11,False,True,True,True,False,False,LEFT,LEFT
430,420,280,450,DOWN,LEFT,180,47,True,True,False,True,False,False,DOWN,DOWN
80,400,80,410,DOWN,EQUAL,10,34,True,True,False,True,False,False,DOWN,DOWN
190,230,460,190,UP,RIGHT,310,20,True,True,False,True,False,False,DOWN,RIGHT
270,320,40,210,UP,LEFT,340,45,True,True,True,False,False,False,UP,UP
70,290,100,10,UP,RIGHT,310,10,True,True,True,False,True,False,UP,UP
50,220,80,410,DOWN,RIGHT,220,34,True,False,True,True,True,False,RIGHT,RIGHT
10,450,10,460,DOWN,EQUAL,10,25,True,True,False,True,True,False,DOWN,DOWN
330,100,370,230,DOWN,RIGHT,170,50,True,False,False,True,True,True,RIGHT,RIGHT
270,120,120,70,EQUAL,EQUAL,200,31,False,True,True,True,False,False,LEFT,LEFT
300,410,310,120,UP,RIGHT,300,48,True,False,True,True,True,True,RIGHT,RIGHT
120,10,130,10,EQUAL,RIGHT,10,3,True,True,False,True,True,False,DOWN,DOWN
420,370,100,370,EQUAL,LEFT,320,9,True,True,False,True,False,False,DOWN,LEFT
180,70,180,360,DOWN,EQUAL,290,53,True,True,False,True,True,True,DOWN,DOWN
100,410,110,440,DOWN,RIGHT,40,22,True,True,False,True,False,False,DOWN,DOWN
150,50,180,360,DOWN,RIGHT,340,53,True,False,True,True,False,False,RIGHT,RIGHT
450,130,120,80,UP,LEFT,380,61,True,True,False,True,True,True,DOWN,DOWN
350,450,280,450,EQUAL,LEFT,70,47,False,True,True,True,False,False,LEFT,LEFT
210,310,430,320,DOWN,RIGHT,230,46,True,False,True,True,True,False,RIGHT,RIGHT
100,150,100,50,UP,EQUAL,100,52,True,True,True,False,False,False,UP,UP
190,0,420,20,DOWN,RIGHT,250,4,True,False,False,True,False,False,RIGHT,RIGHT
110,20,100,10,UP,LEFT,20,10,True,True,True,False,True,False,UP,UP
30,390,30,440,DOWN,EQUAL,50,12,True,True,False,True,False,False,DOWN,DOWN
110,360,110,440,DOWN,EQUAL,80,22,False,True,True,True,False,False,LEFT,LEFT
290,90,170,100,DOWN,LEFT,130,6,False,True,True,True,False,False,LEFT,LEFT
160,90,170,100,DOWN,RIGHT,20,6,False,True,True,True,False,False,LEFT,DOWN
180,150,280,160,DOWN,RIGHT,110,32,True,False,True,True,True,True,RIGHT,RIGHT
450,280,460,440,DOWN,RIGHT,170,58,True,True,False,True,True,False,DOWN,DOWN
130,470,320,270,UP,RIGHT,390,26,True,False,True,False,True,False,RIGHT,RIGHT
200,210,50,250,DOWN,LEFT,190,7,True,True,False,True,False,False,DOWN,DOWN
60,470,320,270,UP,RIGHT,460,26,True,False,True,False,True,False,RIGHT,RIGHT
150,280,10,460,DOWN,LEFT,320,25,False,True,True,True,True,False,LEFT,LEFT
80,450,210,440,UP,RIGHT,140,44,False,True,True,True,False,False,LEFT,LEFT
270,70,280,160,DOWN,RIGHT,100,32,True,True,False,True,True,False,DOWN,DOWN
450,260,450,270,DOWN,EQUAL,10,16,True,True,False,True,False,False,DOWN,DOWN
240,90,170,100,DOWN,LEFT,80,6,False,True,True,True,False,False,LEFT,LEFT
10,330,10,460,DOWN,EQUAL,130,25,True,True,False,True,True,False,DOWN,DOWN
350,310,430,320,DOWN,RIGHT,90,46,True,False,True,True,True,False,RIGHT,RIGHT
300,230,40,240,DOWN,LEFT,270,57,False,True,True,True,True,False,LEFT,LEFT
130,70,60,180,EQUAL,EQUAL,180,14,True,True,True,False,False,False,UP,UP
280,50,390,80,DOWN,RIGHT,140,55,True,False,True,True,False,False,RIGHT,RIGHT
130,0,420,20,DOWN,RIGHT,310,4,True,True,False,False,True,False,UP,RIGHT
160,470,320,270,UP,RIGHT,360,26,True,False,True,False,True,False,RIGHT,RIGHT
460,420,460,440,DOWN,EQUAL,20,58,True,False,True,True,False,False,RIGHT,DOWN
420,40,340,300,DOWN,LEFT,340,5,True,True,False,True,False,False,DOWN,DOWN
10,260,80,410,DOWN,RIGHT,220,34,True,True,True,False,True,False,UP,UP
390,20,400,20,EQUAL,RIGHT,10,8,True,False,True,True,False,False,RIGHT,RIGHT
390,350,390,260,UP,EQUAL,90,38,True,False,True,True,True,False,RIGHT,UP
150,130,160,420,DOWN,RIGHT,300,43,False,True,True,True,False,False,LEFT,LEFT
320,360,320,270,UP,EQUAL,90,26,True,True,True,False,True,False,UP,UP
60,120,30,440,DOWN,LEFT,350,12,False,True,True,True,False,False,LEFT,LEFT
240,150,260,150,EQUAL,RIGHT,20,15,True,True,False,True,False,False,DOWN,RIGHT
450,230,460,440,DOWN,RIGHT,220,58,True,True,False,True,True,False,DOWN,DOWN
280,220,280,210,UP,EQUAL,10,17,True,True,True,False,True,False,UP,UP
330,330,440,370,DOWN,RIGHT,150,37,True,False,True,True,False,False,RIGHT,RIGHT
340,200,370,230,DOWN,RIGHT,60,50,True,True,False,True,False,False,DOWN,DOWN
110,240,100,50,UP,LEFT,200,52,True,True,True,False,True,False,UP,UP
170,50,390,80,DOWN,RIGHT,250,55,True,False,True,True,False,False,RIGHT,RIGHT
240,40,120,50,DOWN,LEFT,130,27,False,True,True,True,True,False,LEFT,LEFT
460,60,460,20,UP,EQUAL,40,18,True,True,True,False,False,False,UP,UP
140,130,160,420,DOWN,RIGHT,310,43,False,True,True,True,False,False,LEFT,DOWN
190,40,120,50,DOWN,LEFT,80,27,False,True,True,True,True,False,LEFT,LEFT
350,380,350,310,UP,EQUAL,70,23,True,True,True,False,True,False,UP,UP
270,40,120,50,DOWN,LEFT,160,27,False,True,True,True,True,False,LEFT,LEFT
60,30,60,180,DOWN,EQUAL,150,14,False,True,True,True,False,False,LEFT,DOWN
270,170,280,160,UP,RIGHT,20,32,False,True,True,True,False,False,LEFT,LEFT
110,40,100,10,UP,LEFT,40,10,True,True,True,False,True,False,UP,UP
300,420,360,430,DOWN,RIGHT,70,56,False,True,True,True,True,False,LEFT,LEFT
50,440,130,70,UP,RIGHT,450,13,True,False,True,True,False,False,RIGHT,RIGHT
210,10,400,20,DOWN,RIGHT,200,8,True,False,True,True,False,False,RIGHT,RIGHT
