@relation 'snake_game-weka.filters.unsupervised.attribute.Remove-R7-8,12-19-weka.filters.unsupervised.instance.Randomize-S42-weka.filters.unsupervised.instance.Randomize-S42-weka.filters.unsupervised.instance.RemovePercentage-P20.0'

@attribute snake_pos_x numeric
@attribute snake_pos_y numeric
@attribute snake_pos_x_next numeric
@attribute snake_pos_y_next numeric
@attribute food_pos_x numeric
@attribute food_pos_y numeric
@attribute manhattan_distance numeric
@attribute next_manhattan_distance numeric
@attribute large_snake numeric
@attribute score numeric
@attribute next_score numeric

@data
140,370,140,360,160,380,30,40,11,520,519
440,230,440,240,410,310,110,100,13,550,549
430,190,430,200,420,260,80,70,20,1114,1113
400,420,410,420,460,190,290,280,5,87,86
50,100,60,100,460,70,440,430,18,815,814
190,400,190,410,360,430,200,190,13,664,663
170,240,170,250,170,260,20,10,8,231,230
120,50,130,50,360,270,460,450,3,-2,-3
170,350,170,360,390,400,270,260,9,321,320
70,300,70,310,470,420,520,510,28,1479,1478
430,230,430,220,410,360,150,160,21,1189,1188
250,150,240,150,160,250,190,180,25,1273,1272
430,190,430,200,60,280,460,450,6,148,147
30,100,40,100,460,70,460,450,18,817,816
380,220,370,220,410,210,40,50,14,616,615
180,210,170,210,170,260,60,50,8,235,234
280,420,290,420,380,410,110,100,16,710,709
270,440,260,440,20,60,630,620,10,379,378
410,150,420,150,450,130,60,50,16,852,851
60,260,60,250,420,120,500,490,25,1443,1442
70,470,60,470,380,410,370,380,16,740,0
50,310,60,310,160,60,360,350,7,195,194
420,70,410,70,60,70,360,350,17,762,761
410,310,400,310,410,210,100,110,14,640,639
250,290,250,300,250,450,160,150,4,30,29
20,110,20,100,20,90,20,10,23,1110,1109
390,470,380,470,70,470,320,310,15,671,0
320,220,330,220,370,220,50,40,15,767,766
310,390,320,390,400,390,90,80,7,253,252
80,310,80,320,290,280,240,250,28,1633,1632
250,280,240,280,130,280,120,110,27,1552,1551
190,390,190,380,180,390,10,20,12,594,593
70,20,80,20,120,20,50,40,9,374,373
180,130,180,140,170,260,140,130,8,243,242
30,220,30,210,20,90,140,130,23,1122,1121
350,370,340,370,150,450,280,270,23,1297,1296
380,70,370,70,60,70,320,310,17,758,757
70,40,70,30,120,20,70,60,9,376,375
380,110,390,110,420,120,50,40,25,1396,1395
220,70,210,70,60,70,160,150,17,742,741
360,110,370,110,420,120,70,60,25,1398,1397
30,40,40,40,250,10,250,240,11,414,413
260,290,250,290,210,280,60,50,18,955,954
210,470,200,470,70,470,140,130,15,653,0
330,110,340,110,420,120,100,90,25,1401,1400
220,280,210,280,60,280,160,150,6,118,117
130,440,140,440,380,410,280,270,16,727,726
410,250,410,240,120,190,350,340,8,330,329
270,280,270,270,270,220,60,50,4,39,38
90,390,100,390,400,390,310,300,7,275,274
70,360,70,370,470,420,460,450,28,1473,1472
80,40,90,40,250,10,200,190,11,409,408
370,410,380,410,380,410,10,0,16,700,800
180,370,180,380,180,390,20,10,12,585,584
430,260,430,270,60,280,390,380,6,141,140
430,300,420,300,410,130,190,180,21,1000,999
150,110,160,110,240,110,90,80,24,1192,1191
10,80,10,90,460,70,460,470,18,821,820
190,230,190,240,160,250,50,40,25,1259,1258
160,110,170,110,420,120,270,260,25,1418,1417
40,280,30,280,160,60,340,350,7,201,200
180,110,190,110,240,110,60,50,24,1189,1188
220,440,210,440,20,60,580,570,10,374,373
420,270,420,260,410,210,70,60,14,625,624
360,200,360,210,360,270,70,60,3,-41,-42
180,160,180,170,170,260,110,100,8,240,239
210,410,220,410,360,430,170,160,13,661,660
400,280,400,290,410,360,90,80,21,1173,1172
160,110,150,110,80,350,320,310,6,213,212
130,110,120,110,80,350,290,280,6,210,209
450,110,450,100,290,450,500,510,17,945,944
410,420,420,420,460,190,280,270,5,86,85
280,120,280,130,280,150,30,20,19,845,844
230,250,230,260,250,450,220,210,4,36,35
160,130,160,140,160,250,120,110,25,1236,1235
220,220,230,220,370,220,150,140,15,777,776
290,240,290,230,270,350,130,140,29,1704,1703
210,420,220,420,460,190,480,470,5,106,105
410,170,410,160,450,130,80,70,16,854,853
80,140,70,140,470,420,670,680,28,1496,1495
190,180,180,180,180,150,40,30,5,122,121
420,270,420,260,60,70,560,550,17,782,781
280,290,280,300,390,370,190,180,20,929,928
160,260,160,270,150,190,80,90,26,1324,1323
400,430,400,440,70,470,370,360,15,676,675
400,50,390,50,280,150,220,210,19,864,863
190,110,200,110,420,120,240,230,25,1415,1414
80,310,80,320,290,280,240,250,28,1633,1632
10,90,10,100,460,70,470,480,18,820,819
50,80,60,80,240,110,220,210,24,1205,1204
90,320,100,320,290,280,240,230,28,1631,1630
190,340,180,340,180,390,60,50,12,589,588
280,120,280,130,280,150,30,20,19,845,844
110,110,120,110,420,120,320,310,25,1423,1422
60,60,60,70,250,450,580,570,4,72,71
280,300,280,310,270,350,60,50,29,1691,1690
350,90,340,90,250,200,210,200,22,1070,1069
460,80,460,70,460,70,10,0,18,772,872
350,440,340,440,20,60,710,700,10,387,386
250,170,250,180,250,200,30,20,22,1052,1051
460,70,460,60,280,150,260,270,19,872,871
200,450,190,450,150,450,50,40,23,1274,1273
420,390,420,400,420,410,20,10,22,1229,1228
250,320,250,330,250,450,130,120,4,27,26
160,330,150,330,100,330,60,50,14,711,710
160,180,160,190,160,250,70,60,25,1231,1230
440,370,430,370,150,450,370,360,23,1306,1305
250,340,240,340,100,330,160,150,14,721,720
260,10,270,10,440,80,250,240,12,489,488
360,240,360,250,290,450,280,270,17,917,916
70,390,70,400,470,420,430,420,28,1470,1469
110,220,120,220,370,220,260,250,15,788,787
170,100,180,100,460,70,320,310,18,803,802
50,80,60,80,240,110,220,210,24,1205,1204
230,260,240,260,250,450,210,200,4,35,34
140,360,140,350,160,380,40,50,11,519,518
330,90,320,90,250,200,190,180,22,1068,1067
210,340,200,340,100,330,120,110,14,717,716
460,90,460,80,460,70,20,10,18,773,772
60,80,70,80,240,110,210,200,24,1204,1203
280,300,280,310,270,350,60,50,29,1691,1690
180,370,180,380,160,380,30,20,11,530,529
270,70,260,70,60,70,210,200,17,747,746
160,70,160,80,180,360,310,300,10,461,460
420,320,420,310,420,260,60,50,20,1098,1097
160,50,160,60,180,360,330,320,10,463,462
460,240,460,230,460,190,50,40,5,63,62
300,90,290,90,250,200,160,150,22,1065,1064
230,370,240,370,210,280,110,120,18,970,969
200,150,190,150,160,250,140,130,25,1268,1267
210,270,210,260,300,160,200,190,19,1049,1048
50,470,50,460,380,410,390,380,16,738,0
320,390,330,390,400,390,80,70,7,252,251
70,290,70,280,370,220,370,360,15,799,798
60,440,70,440,380,410,350,340,16,734,733
60,150,60,160,250,450,490,480,4,63,62
290,240,290,230,270,350,130,140,29,1704,1703
280,360,280,370,390,370,120,110,20,922,921
320,90,310,90,250,200,180,170,22,1067,1066
420,250,430,250,410,360,120,130,21,1192,1191
80,240,70,240,20,90,210,200,23,1129,1128
290,390,300,390,400,390,110,100,7,255,254
440,130,440,140,410,310,210,200,13,560,559
320,470,310,470,70,470,250,240,15,664,0
360,220,360,230,290,450,300,290,17,919,918
250,370,260,370,210,280,130,140,18,968,967
190,170,190,180,160,250,110,100,25,1265,1264
460,240,460,250,130,280,370,360,27,1577,1576
330,450,320,450,150,450,180,170,23,1287,1286
450,380,450,370,460,190,200,190,5,78,77
170,400,180,400,470,420,320,310,28,1459,1458
100,390,110,390,400,390,300,290,7,274,273
60,470,50,470,380,410,380,390,16,739,0
80,280,80,290,80,350,70,60,6,186,185
240,160,250,160,300,160,60,50,19,1035,1034
250,160,250,170,250,200,40,30,22,1053,1052
440,300,440,310,410,310,40,30,13,543,542
310,350,300,350,100,330,230,220,14,728,727
70,250,70,240,370,220,330,320,15,795,794
400,250,390,250,130,280,300,290,27,1570,1569
140,440,130,440,20,60,500,490,10,366,365
190,400,190,390,180,390,20,10,12,595,594
410,290,410,280,120,190,390,380,8,334,333
380,50,370,50,280,150,200,190,19,862,861
360,80,360,90,290,450,440,430,17,933,932
80,80,90,80,240,110,190,180,24,1202,1201
410,110,410,100,250,200,250,260,22,1078,1077
410,150,410,140,410,130,20,10,21,981,980
250,390,260,390,400,390,150,140,7,259,258
20,40,30,40,250,10,260,250,11,415,414
380,400,370,400,420,410,50,60,22,1224,1223
160,400,170,400,470,420,330,320,28,1460,1459
360,230,360,240,360,270,40,30,3,-44,-45
90,90,90,100,240,110,170,160,24,1200,1199
130,40,120,40,70,40,60,50,3,-20,-21
90,90,90,100,240,110,170,160,24,1200,1199
210,160,220,160,300,160,90,80,19,1038,1037
80,280,70,280,60,280,20,10,6,104,103
260,470,250,470,70,470,190,180,15,658,0
60,300,60,290,420,120,540,530,25,1447,1446
400,220,410,220,410,130,100,90,21,989,988
360,220,360,230,360,270,50,40,3,-43,-44
220,450,210,450,210,280,180,170,18,983,982
400,400,390,400,420,410,30,40,22,1226,1225
140,180,150,180,250,450,380,370,4,52,51
430,210,420,210,410,210,20,10,14,600,599
160,170,160,160,160,60,110,100,7,170,169
190,100,200,100,460,70,300,290,18,801,800
160,200,160,210,160,250,50,40,25,1229,1228
430,170,430,180,60,280,480,470,6,150,149
110,40,100,40,70,40,40,30,3,-22,-23
80,370,80,380,400,390,340,330,7,278,277
340,370,350,370,390,370,50,40,20,915,914
430,310,430,300,410,130,200,190,21,1001,1000
380,80,370,80,290,450,460,450,17,935,934
200,450,200,440,210,280,180,170,18,981,980
70,90,70,80,120,20,120,110,9,381,380
170,110,160,110,80,350,330,320,6,214,213
160,100,160,90,160,60,40,30,7,163,162
130,70,120,70,60,70,70,60,17,733,732
420,160,420,150,60,70,450,440,17,771,770
280,340,270,340,100,330,190,180,14,724,723
360,280,350,280,130,280,230,220,27,1563,1562
360,440,350,440,20,60,720,710,10,388,387
120,280,110,280,290,280,170,180,28,1640,1639
380,10,390,10,440,80,130,120,12,477,476
230,450,220,450,210,280,190,180,18,984,983
270,230,270,220,270,220,10,0,4,34,134
400,410,410,410,60,70,680,690,17,798,797
270,410,280,410,470,420,210,200,28,1448,1447
420,180,420,190,460,200,60,50,26,1486,1485
70,150,70,140,120,20,180,170,9,387,386
430,330,430,320,420,410,90,100,22,1238,1237
190,370,190,360,180,390,30,40,12,592,591
360,370,360,380,290,450,150,140,17,904,903
140,310,150,310,160,380,90,80,11,514,513
410,160,420,160,420,260,110,100,20,1119,1118
420,270,420,260,60,70,560,550,17,782,781
130,240,120,240,20,90,260,250,23,1134,1133
200,110,210,110,240,110,40,30,24,1187,1186
270,110,280,110,160,250,250,260,25,1281,1280
130,420,130,410,360,430,240,250,13,674,673
330,350,320,350,100,330,250,240,14,730,729
390,390,390,400,390,400,10,0,9,295,395
290,280,280,280,130,280,160,150,27,1556,1555
20,400,20,390,20,60,340,330,10,350,349
70,160,70,150,120,20,190,180,9,388,387
250,160,250,170,250,200,40,30,22,1053,1052
90,390,100,390,400,390,310,300,7,275,274
60,290,60,280,420,120,530,520,25,1446,1445
360,370,350,370,150,450,290,280,23,1298,1297
80,290,80,300,80,350,60,50,6,185,184
180,350,180,360,180,390,40,30,12,587,586
370,160,380,160,420,260,150,140,20,1123,1122
70,240,70,230,370,220,320,310,15,794,793
400,270,400,260,410,130,150,140,21,994,993
430,310,430,300,410,130,200,190,21,1001,1000
440,10,440,20,440,80,70,60,12,471,470
160,130,160,120,160,60,70,60,7,166,165
370,100,380,100,460,70,120,110,18,783,782
140,240,130,240,20,90,270,260,23,1135,1134
350,110,360,110,420,120,80,70,25,1399,1398
160,300,160,290,160,60,240,230,7,183,182
230,240,220,240,20,90,360,350,23,1144,1143
70,320,70,330,470,420,500,490,28,1477,1476
30,280,30,290,160,60,350,360,7,200,199
180,110,190,110,420,120,250,240,25,1416,1415
160,240,160,230,160,60,180,170,7,177,176
440,110,440,120,410,310,230,220,13,562,561
170,310,170,320,390,400,310,300,9,325,324
440,50,440,60,440,80,30,20,12,467,466
80,240,80,250,80,350,110,100,6,190,189
440,300,440,310,410,310,40,30,13,543,542
430,240,430,250,60,280,410,400,6,143,142
20,80,20,70,20,60,20,10,10,318,317
160,110,160,120,180,360,270,260,10,457,456
210,70,200,70,60,70,150,140,17,741,740
160,200,160,190,160,60,140,130,7,173,172
260,430,270,430,360,430,100,90,13,654,653
370,210,360,210,120,190,270,260,8,322,321
180,140,180,150,170,260,130,120,8,242,241
420,320,420,310,60,70,610,600,17,787,786
150,330,140,330,100,330,50,40,14,710,709
150,290,150,280,150,190,100,90,26,1316,1315
170,470,160,470,70,470,100,90,15,649,0
380,420,380,410,100,330,370,360,14,742,741
70,190,70,200,470,420,630,620,28,1490,1489
200,470,190,470,70,470,130,120,15,652,0
360,340,360,350,290,450,180,170,17,907,906
330,450,320,450,150,450,180,170,23,1287,1286
280,240,280,250,390,370,240,230,20,934,933
280,10,290,10,440,80,230,220,12,487,486
20,220,20,210,20,60,160,150,10,332,331
360,80,360,90,360,270,190,180,3,-29,-30
20,250,20,240,20,60,190,180,10,335,334
460,260,460,250,460,190,70,60,5,65,64
290,260,290,250,270,350,110,120,29,1706,1705
380,280,370,280,130,280,250,240,27,1565,1564
250,380,250,390,250,450,70,60,4,21,20
280,320,280,330,390,370,160,150,20,926,925
170,130,170,140,180,360,240,230,10,454,453
170,250,180,250,180,360,120,110,10,442,441
160,70,160,60,160,60,10,0,7,160,260
310,280,300,280,130,280,180,170,27,1558,1557
360,100,360,110,290,450,420,410,17,931,930
290,370,300,370,390,370,100,90,20,920,919
440,170,440,180,410,310,170,160,13,556,555
460,60,460,50,280,150,270,280,19,871,870
410,370,420,370,410,130,240,250,21,1009,1008
240,390,250,390,390,400,160,150,9,310,309
250,50,260,50,360,270,330,320,3,-15,-16
290,420,300,420,460,190,400,390,5,98,97
400,420,410,420,420,410,30,20,22,1250,1249
80,320,90,320,290,280,250,240,28,1632,1631
440,420,450,420,470,420,30,20,28,1430,1429
330,280,320,280,130,280,200,190,27,1560,1559
370,400,360,400,420,410,60,70,22,1223,1222
200,180,190,180,180,150,50,40,5,123,122
70,70,60,70,60,70,10,0,17,727,827
70,200,70,210,80,350,160,150,6,195,194
390,410,400,410,60,70,670,680,17,799,798
280,340,280,330,210,280,130,120,18,962,961
190,210,190,220,160,250,70,60,25,1261,1260
380,440,370,440,20,60,740,730,10,390,389
430,270,430,280,60,280,380,370,6,140,139
250,200,250,210,20,90,340,350,23,1150,1149
390,410,400,410,470,420,90,80,28,1436,1435
330,440,320,440,20,60,690,680,10,385,384
110,10,120,10,250,10,140,130,11,403,402
430,230,430,240,60,280,420,410,6,144,143
70,210,70,220,80,350,150,140,6,194,193
310,410,320,410,470,420,170,160,28,1444,1443
240,200,230,200,120,190,130,120,8,308,307
70,100,70,90,120,20,130,120,9,382,381
200,110,210,110,420,120,230,220,25,1414,1413
210,240,200,240,20,90,340,330,23,1142,1141
420,300,410,300,410,130,180,170,21,999,998
420,320,420,310,420,260,60,50,20,1098,1097
80,300,80,310,290,280,230,240,28,1634,1633
460,270,460,260,460,190,80,70,5,66,65
180,350,180,360,180,390,40,30,12,587,586
90,40,80,40,70,40,20,10,3,-24,-25
50,70,40,70,460,70,410,420,18,826,825
360,390,370,390,400,390,40,30,7,248,247
360,90,350,90,250,200,220,210,22,1071,1070
410,420,420,420,470,420,60,50,28,1433,1432
20,170,20,160,20,60,110,100,10,327,326
400,370,390,370,150,450,330,320,23,1302,1301
220,470,210,470,70,470,150,140,15,654,0
280,210,280,220,270,350,150,140,29,1700,1699
290,450,280,450,150,450,140,130,23,1283,1282
400,230,400,220,410,130,110,100,21,990,989
160,130,170,130,180,360,250,240,10,455,454
370,90,360,90,250,200,230,220,22,1072,1071
380,390,380,380,100,330,340,330,14,739,738
210,180,200,180,180,150,60,50,5,124,123
200,80,200,90,170,260,210,200,8,250,249
240,70,230,70,60,70,180,170,17,744,743
180,240,170,240,20,90,310,300,23,1139,1138
330,50,340,50,360,270,250,240,3,-23,-24
230,210,230,220,250,450,260,250,4,40,39
330,70,320,70,60,70,270,260,17,753,752
370,80,360,80,290,450,450,440,17,934,933
310,110,320,110,420,120,120,110,25,1403,1402
200,450,200,440,460,190,520,510,5,110,109
210,50,220,50,360,270,370,360,3,-11,-12
170,240,170,250,180,360,130,120,10,443,442
160,110,170,110,240,110,80,70,24,1191,1190
280,230,280,240,390,370,250,240,20,935,934
100,110,90,110,80,350,260,250,6,207,206
260,50,270,50,360,270,320,310,3,-16,-17
350,220,360,220,370,220,20,10,15,764,763
360,420,370,420,420,410,70,60,22,1254,1253
240,100,250,100,460,70,250,240,18,796,795
360,400,350,400,420,410,70,80,22,1222,1221
300,440,290,440,20,60,660,650,10,382,381
200,220,210,220,370,220,170,160,15,779,778
90,40,100,40,250,10,190,180,11,408,407
170,100,180,100,460,70,320,310,18,803,802
420,310,420,300,420,260,50,40,20,1097,1096
250,90,250,100,250,200,110,100,22,1060,1059
420,330,420,320,60,70,620,610,17,788,787
60,160,60,170,250,450,480,470,4,62,61
200,440,200,430,210,280,170,160,18,980,979
30,240,30,230,20,90,160,150,23,1124,1123
50,40,60,40,250,10,230,220,11,412,411
390,420,400,420,420,410,40,30,22,1251,1250
360,160,360,170,360,270,110,100,3,-37,-38
430,390,430,380,420,410,30,40,22,1244,1243
360,450,350,450,290,450,70,60,17,896,895
250,110,260,110,420,120,180,170,25,1409,1408
70,160,70,170,470,420,660,650,28,1493,1492
400,160,410,160,420,260,120,110,20,1120,1119
340,90,330,90,250,200,200,190,22,1069,1068
190,430,200,430,380,410,210,200,16,720,719
200,110,210,110,420,120,230,220,25,1414,1413
400,50,390,50,280,150,220,210,19,864,863
330,50,320,50,280,150,150,140,19,857,856
210,50,210,40,70,40,150,140,3,-11,-12
70,440,70,430,60,330,120,110,24,1361,1360
110,110,100,110,80,350,270,260,6,208,207
340,280,330,280,130,280,210,200,27,1561,1560
300,390,310,390,390,400,100,90,9,304,303
160,190,160,180,160,60,130,120,7,172,171
460,170,460,160,60,280,510,520,6,157,156
420,330,420,320,60,70,620,610,17,788,787
360,220,360,230,290,450,300,290,17,919,918
180,390,180,400,160,380,30,40,11,528,527
210,440,200,440,20,60,570,560,10,373,372
120,440,130,440,380,410,290,280,16,728,727
270,200,260,200,120,190,160,150,8,311,310
370,430,380,430,100,330,370,380,14,744,743
150,10,160,10,250,10,100,90,11,399,398
310,280,300,280,60,280,250,240,6,127,126
60,310,70,310,160,60,350,340,7,194,193
210,400,220,400,470,420,280,270,28,1455,1454
450,370,450,360,460,190,190,180,5,77,76
280,350,280,360,390,370,130,120,20,923,922
400,250,400,260,70,470,550,540,15,694,693
250,50,260,50,360,270,330,320,3,-15,-16
400,310,400,320,70,470,490,480,15,688,687
200,180,190,180,180,150,50,40,5,123,122
350,400,350,410,420,410,80,70,22,1221,1220
70,320,70,330,470,420,500,490,28,1477,1476
170,50,180,50,360,270,410,400,3,-7,-8
410,320,410,310,120,190,420,410,8,337,336
400,240,400,250,70,470,560,550,15,695,694
170,320,180,320,290,280,160,150,28,1623,1622
180,450,170,450,150,450,30,20,23,1272,1271
70,450,70,440,60,330,130,120,24,1362,1361
180,340,180,350,180,390,50,40,12,588,587
280,220,280,230,270,350,140,130,29,1699,1698
420,10,430,10,440,80,90,80,12,473,472
20,260,20,250,20,60,200,190,10,336,335
170,280,160,280,60,280,110,100,6,113,112
400,220,410,220,450,130,140,130,16,860,859
340,200,330,200,120,190,230,220,8,318,317
140,50,150,50,70,40,80,90,3,-4,-5
140,50,150,50,360,270,440,430,3,-4,-5
320,100,330,100,460,70,170,160,18,788,787
280,230,280,240,270,350,130,120,29,1698,1697
70,440,70,430,60,330,120,110,24,1361,1360
420,170,420,180,460,200,70,60,26,1487,1486
180,390,190,390,390,400,220,210,9,316,315
350,450,340,450,290,450,60,50,17,895,894
150,40,140,40,70,40,80,70,3,-18,-19
390,390,400,390,400,390,10,0,7,245,345
150,280,140,280,60,280,90,80,6,111,110
270,110,280,110,160,250,250,260,25,1281,1280
170,50,180,50,70,40,110,120,3,-7,-8
410,340,410,350,410,360,20,10,21,1166,1165
210,390,220,390,390,400,190,180,9,313,312
170,310,170,320,390,400,310,300,9,325,324
230,180,230,190,250,450,290,280,4,43,42
60,120,60,130,250,450,520,510,4,66,65
180,390,190,390,400,390,220,210,7,266,265
200,380,200,370,210,280,110,100,18,974,973
430,410,430,400,420,410,10,20,22,1246,1245
350,410,360,410,470,420,130,120,28,1440,1439
360,470,350,470,70,470,290,280,15,668,0
180,280,170,280,60,280,120,110,6,114,113
290,420,300,420,380,410,100,90,16,709,708
360,280,350,280,60,280,300,290,6,132,131
400,210,400,220,410,360,160,150,21,1180,1179
410,290,410,280,120,190,390,380,8,334,333
410,220,410,210,450,130,130,120,16,859,858
190,280,180,280,130,280,60,50,27,1546,1545
220,430,220,420,380,410,180,170,16,717,716
360,310,360,300,410,210,150,140,14,635,634
160,40,170,40,170,260,230,220,8,258,257
280,240,280,250,270,350,120,110,29,1697,1696
350,300,340,300,270,220,160,150,4,49,48
180,300,180,310,180,360,60,50,10,436,435
380,90,370,90,250,200,240,230,22,1073,1072
170,50,180,50,70,40,110,120,3,-7,-8
350,10,360,10,440,80,160,150,12,480,479
450,190,460,190,460,200,20,10,26,1482,1481
100,280,90,280,60,280,40,30,6,106,105
60,70,50,70,460,70,400,410,18,827,826
400,440,400,450,70,470,360,350,15,675,674
80,330,70,330,370,220,400,410,15,804,803
100,20,110,20,120,20,20,10,9,371,370
460,210,460,220,130,280,400,390,27,1580,1579
230,450,220,450,150,450,80,70,23,1277,1276
140,320,150,320,290,280,190,180,28,1626,1625
170,300,170,310,390,400,320,310,9,326,325
420,150,420,140,60,70,440,430,17,770,769
420,340,420,330,60,70,630,620,17,789,788
160,120,160,130,160,250,130,120,25,1237,1236
270,210,270,200,180,150,150,140,5,133,132
80,390,90,390,400,390,320,310,7,276,275
150,280,140,280,130,280,20,10,27,1542,1541
410,400,400,400,420,410,20,30,22,1227,1226
220,50,230,50,360,270,360,350,3,-12,-13
200,280,190,280,130,280,70,60,27,1547,1546
220,70,210,70,60,70,160,150,17,742,741
400,280,400,290,70,470,520,510,15,691,690
390,400,380,400,420,410,40,50,22,1225,1224
20,170,20,160,20,90,80,70,23,1116,1115
400,260,400,270,410,360,110,100,21,1175,1174
20,100,20,90,20,60,40,30,10,320,319
160,100,170,100,460,70,330,320,18,804,803
280,70,270,70,60,70,220,210,17,748,747
80,270,80,280,80,350,80,70,6,187,186
200,180,210,180,250,450,320,310,4,46,45
220,420,230,420,460,190,470,460,5,105,104
70,140,70,150,80,350,220,210,6,201,200
430,240,430,230,410,360,140,150,21,1190,1189
250,190,250,200,250,200,10,0,22,1050,1150
460,220,460,210,460,190,30,20,5,61,60
120,440,130,440,380,410,290,280,16,728,727
160,400,150,400,160,380,20,30,11,525,524
430,170,430,180,60,280,480,470,6,150,149
430,420,430,410,420,410,20,10,22,1247,1246
360,70,350,70,60,70,300,290,17,756,755
120,110,130,110,420,120,310,300,25,1422,1421
20,290,20,280,20,60,230,220,10,339,338
410,300,410,310,420,260,50,60,20,1101,1100
280,410,290,410,470,420,200,190,28,1447,1446
220,400,230,400,470,420,270,260,28,1454,1453
360,400,360,410,420,410,70,60,22,1256,1255
350,440,340,440,20,60,710,700,10,387,386
70,260,70,250,370,220,340,330,15,796,795
70,250,70,260,470,420,570,560,28,1484,1483
360,80,360,90,290,450,440,430,17,933,932
390,410,400,410,420,410,30,20,22,1216,1215
410,10,420,10,440,80,100,90,12,474,473
280,200,270,200,120,190,170,160,8,312,311
430,200,430,210,420,260,70,60,20,1113,1112
220,150,210,150,160,250,160,150,25,1270,1269
400,210,390,210,120,190,300,290,8,325,324
370,200,380,200,410,210,50,40,14,611,610
100,110,110,110,420,120,330,320,25,1424,1423
300,200,290,200,120,190,190,180,8,314,313
450,120,450,110,290,450,490,500,17,946,945
310,280,300,280,60,280,250,240,6,127,126
190,180,190,190,160,250,100,90,25,1264,1263
420,140,420,130,60,70,430,420,17,769,768
380,370,370,370,150,450,310,300,23,1300,1299
80,320,90,320,290,280,250,240,28,1632,1631
200,420,210,420,460,190,490,480,5,107,106
170,110,180,110,420,120,260,250,25,1417,1416
20,190,20,180,20,60,130,120,10,329,328
350,200,340,200,120,190,240,230,8,319,318
300,350,290,350,100,330,220,210,14,727,726
360,60,360,70,360,270,210,200,3,-27,-28
180,40,190,40,170,260,230,240,8,256,255
150,190,150,180,120,140,80,70,27,1407,1406
220,100,230,100,460,70,270,260,18,798,797
430,210,430,200,410,360,170,180,21,1187,1186
160,270,160,280,150,190,90,100,26,1323,1322
380,390,390,390,390,400,20,10,9,296,295
330,410,330,420,150,450,220,210,23,1291,1290
160,280,150,280,130,280,30,20,27,1543,1542
430,210,430,200,410,360,170,180,21,1187,1186
80,110,90,110,420,120,350,340,25,1426,1425
380,420,390,420,420,410,50,40,22,1252,1251
270,100,280,100,460,70,220,210,18,793,792
370,390,380,390,400,390,30,20,7,247,246
460,190,460,200,460,200,10,0,26,1481,1581
90,70,80,70,60,70,30,20,17,729,728
360,370,370,370,390,370,30,20,20,913,912
350,390,360,390,390,400,50,40,9,299,298
250,280,250,290,250,450,170,160,4,31,30
60,310,70,310,160,60,350,340,7,194,193
370,410,380,410,380,410,10,0,16,700,800
430,250,430,260,60,280,400,390,6,142,141
60,400,60,390,60,330,70,60,24,1356,1355
110,280,100,280,60,280,50,40,6,107,106
370,470,360,470,70,470,300,290,15,669,0
300,70,290,70,60,70,240,230,17,750,749
210,420,220,420,460,190,480,470,5,106,105
420,290,420,280,60,70,580,570,17,784,783
110,50,120,50,360,270,470,460,3,-1,-2
300,160,310,160,420,260,220,210,20,1130,1129
20,120,20,110,20,90,30,20,23,1111,1110
250,400,250,410,250,450,50,40,4,19,18
340,10,350,10,440,80,170,160,12,481,480
440,250,440,260,410,310,90,80,13,548,547
410,280,410,290,420,260,30,40,20,1103,1102
410,370,410,380,420,410,50,40,22,1264,1263
430,280,420,280,60,280,370,360,6,139,138
280,60,280,70,280,150,90,80,19,851,850
290,110,300,110,420,120,140,130,25,1405,1404
420,370,430,370,410,130,250,260,21,1008,1007
150,250,150,240,150,190,60,50,26,1312,1311
110,140,100,140,470,420,640,650,28,1499,1498
190,110,200,110,240,110,50,40,24,1188,1187
360,120,360,130,360,270,150,140,3,-33,-34
150,310,150,320,160,380,80,70,11,513,512
240,280,230,280,60,280,180,170,6,120,119
120,100,130,100,460,70,370,360,18,808,807
220,340,210,340,100,330,130,120,14,718,717
170,250,180,250,180,360,120,110,10,442,441
70,270,70,260,370,220,350,340,15,797,796
460,190,460,200,460,200,10,0,26,1481,1581
330,380,330,390,150,450,250,240,23,1294,1293
70,180,70,190,80,350,180,170,6,197,196
200,330,190,330,100,330,100,90,14,715,714
250,100,250,110,250,200,100,90,22,1059,1058
210,450,200,450,150,450,60,50,23,1275,1274
40,310,50,310,160,60,370,360,7,196,195
430,210,430,220,60,280,440,430,6,146,145
90,110,100,110,420,120,340,330,25,1425,1424
240,110,250,110,420,120,190,180,25,1410,1409
110,50,120,50,360,270,470,460,3,-1,-2
380,250,380,260,130,280,280,270,27,1568,1567
340,110,350,110,420,120,90,80,25,1400,1399
280,180,280,190,390,370,300,290,20,940,939
370,390,380,390,390,400,30,20,9,297,296
30,290,30,300,160,60,360,370,7,199,198
290,210,280,210,270,350,160,150,29,1701,1700
170,40,180,40,170,260,220,230,8,257,256
20,320,20,310,20,60,260,250,10,342,341
360,440,360,450,290,450,80,70,17,897,896
160,190,150,190,120,190,40,30,8,299,298
120,240,110,240,20,90,250,240,23,1133,1132
10,100,20,100,460,70,480,470,18,819,818
310,110,320,110,420,120,120,110,25,1403,1402
20,60,20,50,250,10,280,270,11,417,416
390,80,380,80,290,450,470,460,17,936,935
280,50,280,60,280,150,100,90,19,852,851
160,160,160,150,160,60,100,90,7,169,168
110,70,100,70,60,70,50,40,17,731,730
450,90,450,80,290,450,520,530,17,943,942
460,70,460,60,280,150,260,270,19,872,871
280,170,280,180,390,370,310,300,20,941,940
250,90,250,100,250,200,110,100,22,1060,1059
390,310,380,310,410,210,120,130,14,638,637
460,240,460,250,130,280,370,360,27,1577,1576
250,230,250,240,20,90,370,380,23,1147,1146
250,190,250,200,250,200,10,0,22,1050,1150
80,310,80,320,80,350,40,30,6,183,182
210,110,220,110,420,120,220,210,25,1413,1412
140,440,150,440,380,410,270,260,16,726,725
260,390,270,390,390,400,140,130,9,308,307
80,450,70,450,60,330,140,130,24,1363,1362
60,130,60,140,250,450,510,500,4,65,64
410,270,410,260,120,190,370,360,8,332,331
340,10,350,10,440,80,170,160,12,481,480
130,440,120,440,20,60,490,480,10,365,364
420,80,410,80,290,450,500,490,17,939,938
290,210,280,210,270,350,160,150,29,1701,1700
430,200,440,200,410,210,30,40,14,605,604
420,410,420,400,60,70,700,690,17,796,795
150,230,150,220,150,190,40,30,26,1310,1309
360,420,370,420,420,410,70,60,22,1254,1253
410,230,410,240,420,260,40,30,20,1108,1107
250,100,260,100,460,70,240,230,18,795,794
150,470,140,470,70,470,80,70,15,647,0
360,220,360,210,410,210,60,50,14,614,613
280,410,290,410,470,420,200,190,28,1447,1446
440,280,440,290,410,310,60,50,13,545,544
160,60,160,70,180,360,320,310,10,462,461
190,40,180,40,70,40,120,110,3,-14,-15
320,160,330,160,420,260,200,190,20,1128,1127
20,70,10,70,460,70,440,450,18,823,822
60,320,60,310,420,120,560,550,25,1449,1448
360,400,350,400,420,410,70,80,22,1222,1221
410,380,410,370,120,190,480,470,8,343,342
380,310,370,310,410,210,130,140,14,637,636
400,210,400,220,410,360,160,150,21,1180,1179
20,410,20,400,20,60,350,340,10,351,350
200,50,210,50,360,270,380,370,3,-10,-11
400,420,400,430,70,470,380,370,15,677,676
280,200,280,210,390,370,280,270,20,938,937
150,50,160,50,70,40,90,100,3,-5,-6
340,50,350,50,360,270,240,230,3,-24,-25
260,430,270,430,360,430,100,90,13,654,653
90,110,100,110,420,120,340,330,25,1425,1424
450,370,450,360,460,190,190,180,5,77,76
350,370,340,370,150,450,280,270,23,1297,1296
410,370,400,370,150,450,340,330,23,1303,1302
290,300,290,290,290,280,20,10,28,1609,1608
230,200,230,210,250,450,270,260,4,41,40
190,420,190,410,180,390,40,30,12,597,596
400,160,410,160,420,260,120,110,20,1120,1119
70,220,70,230,80,350,140,130,6,193,192
400,260,400,250,410,130,140,130,21,993,992
110,20,120,20,120,20,10,0,9,370,470
180,280,170,280,60,280,120,110,6,114,113
20,360,20,350,20,60,300,290,10,346,345
70,40,80,40,250,10,210,200,11,410,409
240,370,250,370,210,280,120,130,18,969,968
100,400,110,400,470,420,390,380,28,1466,1465
320,280,310,280,60,280,260,250,6,128,127
380,470,370,470,70,470,310,300,15,670,0
420,290,420,280,420,260,30,20,20,1095,1094
130,330,120,330,100,330,30,20,14,708,707
460,100,460,90,460,70,30,20,18,774,773
140,140,130,140,120,140,20,10,27,1401,1400
370,70,360,70,60,70,310,300,17,757,756
250,310,250,320,250,450,140,130,4,28,27
420,280,410,280,60,280,360,350,6,138,137
440,190,450,190,460,200,30,20,26,1483,1482
280,280,280,290,270,350,80,70,29,1693,1692
380,370,380,360,100,330,320,310,14,737,736
360,100,360,110,360,270,170,160,3,-31,-32
200,440,190,440,20,60,560,550,10,372,371
60,40,60,50,250,450,600,590,4,74,73
70,140,70,150,470,420,680,670,28,1495,1494
440,80,440,90,410,310,260,250,13,565,564
250,440,240,440,20,60,610,600,10,377,376
200,450,190,450,150,450,50,40,23,1274,1273
60,360,60,350,60,330,30,20,24,1352,1351
230,280,220,280,130,280,100,90,27,1550,1549
200,450,200,440,460,190,520,510,5,110,109
190,410,200,410,360,430,190,180,13,663,662
270,200,270,190,180,150,140,130,5,132,131
300,280,290,280,60,280,240,230,6,126,125
410,10,420,10,440,80,100,90,12,474,473
380,10,390,10,440,80,130,120,12,477,476
370,370,360,370,150,450,300,290,23,1299,1298
120,400,130,400,470,420,370,360,28,1464,1463
370,390,360,390,420,410,70,80,22,1258,1257
10,70,10,80,460,70,450,460,18,822,821
270,90,260,90,250,200,130,120,22,1062,1061
150,340,150,350,160,380,50,40,11,510,509
160,330,150,330,100,330,60,50,14,711,710
160,30,160,40,180,360,350,340,10,465,464
460,220,460,210,460,190,30,20,5,61,60
350,50,340,50,280,150,170,160,19,859,858
410,210,400,210,120,190,310,300,8,326,325
160,390,170,390,360,430,240,230,13,668,667
180,370,180,380,180,390,20,10,12,585,584
60,130,60,140,250,450,510,500,4,65,64
280,220,280,230,390,370,260,250,20,936,935
290,450,280,450,150,450,140,130,23,1283,1282
20,340,20,330,20,60,280,270,10,344,343
180,190,170,190,120,190,60,50,8,301,300
170,220,170,230,180,360,150,140,10,445,444
370,110,380,110,420,120,60,50,25,1397,1396
430,210,430,220,420,260,60,50,20,1112,1111
360,410,360,420,290,450,110,100,17,900,899
270,370,280,370,210,280,150,160,18,966,965
250,450,240,450,150,450,100,90,23,1279,1278
60,220,60,210,420,120,460,450,25,1439,1438
280,100,290,100,460,70,210,200,18,792,791
420,400,420,390,60,70,690,680,17,795,794
430,250,430,240,410,360,130,140,21,1191,1190
280,90,280,100,280,150,60,50,19,848,847
360,230,360,240,290,450,290,280,17,918,917
410,190,410,180,450,130,100,90,16,856,855
180,100,180,110,170,260,170,160,8,246,245
170,230,170,240,170,260,30,20,8,232,231
150,170,150,160,160,250,90,100,25,1243,1242
160,60,160,70,180,360,320,310,10,462,461
300,450,290,450,150,450,150,140,23,1284,1283
450,90,450,80,290,450,520,530,17,943,942
280,160,290,160,300,160,20,10,19,1031,1030
30,100,40,100,460,70,460,450,18,817,816
380,370,380,360,100,330,320,310,14,737,736
410,300,410,310,420,260,50,60,20,1101,1100
150,440,150,430,380,410,260,250,16,725,724
130,20,140,20,180,360,390,380,10,469,468
230,10,240,10,250,10,20,10,11,391,390
420,420,430,420,460,190,270,260,5,85,84
290,250,290,240,270,350,120,130,29,1705,1704
410,410,420,410,420,410,10,0,22,1214,1314
20,60,20,50,250,10,280,270,11,417,416
180,110,170,110,80,350,340,330,6,215,214
400,250,400,240,410,130,130,120,21,992,991
190,320,200,320,290,280,140,130,28,1621,1620
430,340,430,330,410,130,230,220,21,1004,1003
170,370,170,380,390,400,250,240,9,319,318
90,310,100,310,160,60,320,310,7,191,190
350,280,340,280,60,280,290,280,6,131,130
410,310,410,320,410,360,50,40,21,1169,1168
290,340,280,340,100,330,200,190,14,725,724
410,240,410,230,120,190,340,330,8,329,328
200,80,200,90,170,260,210,200,8,250,249
190,440,180,440,20,60,550,540,10,371,370
150,180,160,180,250,450,370,360,4,51,50
230,420,240,420,380,410,160,150,16,715,714
200,280,190,280,60,280,140,130,6,116,115
370,370,380,370,390,370,20,10,20,912,911
330,470,320,470,70,470,260,250,15,665,0
410,170,410,160,410,130,40,30,21,983,982
60,290,60,280,420,120,530,520,25,1446,1445
280,340,280,330,210,280,130,120,18,962,961
180,50,190,50,360,270,400,390,3,-8,-9
450,400,450,390,150,450,350,360,23,1310,1309
140,10,150,10,250,10,110,100,11,400,399
290,470,280,470,70,470,220,210,15,661,0
210,240,210,230,300,160,170,160,19,1046,1045
200,70,200,80,170,260,220,210,8,251,250
400,300,400,310,410,360,70,60,21,1171,1170
70,160,70,150,120,20,190,180,9,388,387
400,190,400,200,410,360,180,170,21,1182,1181
60,220,60,210,420,120,460,450,25,1439,1438
410,120,410,110,250,200,240,250,22,1079,1078
150,400,140,400,160,380,30,40,11,524,523
400,300,400,310,70,470,500,490,15,689,688
410,330,410,340,410,360,30,20,21,1167,1166
280,310,280,320,390,370,170,160,20,927,926
440,60,440,70,440,80,20,10,12,466,465
200,240,190,240,20,90,330,320,23,1141,1140
430,80,420,80,290,450,510,500,17,940,939
140,40,130,40,70,40,70,60,3,-19,-20
400,330,400,340,70,470,470,460,15,686,685
410,280,420,280,410,210,70,80,14,627,626
270,420,280,420,380,410,120,110,16,711,710
300,440,290,440,20,60,660,650,10,382,381
300,370,310,370,390,370,90,80,20,919,918
360,50,360,60,360,270,220,210,3,-26,-27
280,120,280,130,160,250,250,240,25,1279,1278
30,310,40,310,160,60,380,370,7,197,196
250,450,240,450,460,190,470,480,5,115,114
20,350,20,340,20,60,290,280,10,345,344
250,300,250,310,250,450,150,140,4,29,28
270,280,260,280,60,280,210,200,6,123,122
280,330,280,340,390,370,150,140,20,925,924
440,220,440,230,410,310,120,110,13,551,550
360,380,360,390,290,450,140,130,17,903,902
210,250,210,240,300,160,180,170,19,1047,1046
280,80,280,90,280,150,70,60,19,849,848
130,440,120,440,20,60,490,480,10,365,364
170,330,170,340,390,400,290,280,9,323,322
170,290,170,300,390,400,330,320,9,327,326
380,220,390,220,450,130,160,150,16,862,861
360,370,370,370,390,370,30,20,20,913,912
60,120,60,110,420,120,360,370,25,1429,1428
270,320,280,320,290,280,60,50,28,1613,1612
400,370,400,380,70,470,430,420,15,682,681
60,140,60,130,420,120,380,370,25,1431,1430
390,220,400,220,450,130,150,140,16,861,860
200,390,210,390,390,400,200,190,9,314,313
180,360,180,370,160,380,40,30,11,531,530
150,210,150,200,150,190,20,10,26,1308,1307
410,210,400,210,70,470,600,590,15,699,698
430,350,430,340,420,410,70,80,22,1240,1239
70,130,70,120,120,20,160,150,9,385,384
20,130,20,120,20,60,70,60,10,323,322
200,330,190,330,100,330,100,90,14,715,714
280,200,270,200,120,190,170,160,8,312,311
160,170,160,180,160,250,80,70,25,1232,1231
70,400,60,400,60,330,80,70,24,1357,1356
180,350,180,360,180,360,10,0,10,431,531
410,280,400,280,60,280,350,340,6,137,136
70,150,70,160,470,420,670,660,28,1494,1493
20,250,20,240,20,60,190,180,10,335,334
330,370,330,380,150,450,260,250,23,1295,1294
380,280,390,280,410,210,100,90,14,630,629
430,300,420,300,410,130,190,180,21,1000,999
430,250,420,250,130,280,330,320,27,1573,1572
210,260,210,250,300,160,190,180,19,1048,1047
400,250,400,260,70,470,550,540,15,694,693
70,310,70,300,370,220,390,380,15,801,800
60,140,60,130,420,120,380,370,25,1431,1430
370,220,360,220,410,210,50,60,14,615,614
410,320,410,330,410,360,40,30,21,1168,1167
80,340,80,350,80,350,10,0,6,180,280
90,100,100,100,460,70,400,390,18,811,810
20,170,20,160,20,90,80,70,23,1116,1115
350,370,360,370,390,370,40,30,20,914,913
400,310,410,310,410,360,60,50,21,1170,1169
160,110,170,110,240,110,80,70,24,1191,1190
180,380,180,390,180,390,10,0,12,584,684
410,180,410,170,410,130,50,40,21,984,983
360,290,360,280,410,210,130,120,14,633,632
400,310,390,310,410,210,110,120,14,639,638
430,10,440,10,440,80,80,70,12,472,471
370,280,360,280,60,280,310,300,6,133,132
440,150,450,150,450,130,30,20,16,849,848
160,180,170,180,250,450,360,350,4,50,49
100,40,100,30,250,10,180,170,11,407,406
340,70,330,70,60,70,280,270,17,754,753
160,80,160,70,160,60,20,10,7,161,160
410,130,410,120,250,200,230,240,22,1080,1079
460,220,460,230,130,280,390,380,27,1579,1578
90,40,100,40,250,10,190,180,11,408,407
360,210,360,220,360,270,60,50,3,-42,-43
20,280,20,270,20,60,220,210,10,338,337
220,280,210,280,60,280,160,150,6,118,117
170,400,160,400,160,380,30,20,11,526,525
60,250,60,240,420,120,490,480,25,1442,1441
360,220,360,230,360,270,50,40,3,-43,-44
220,290,210,290,210,280,20,10,18,951,950
330,160,340,160,420,260,190,180,20,1127,1126
400,240,400,250,410,360,130,120,21,1177,1176
110,440,100,440,20,60,470,460,10,363,362
190,240,190,250,160,250,40,30,25,1258,1257
400,370,410,370,410,130,250,240,21,1010,1009
410,210,410,200,410,130,80,70,21,987,986
400,200,410,200,410,210,20,10,14,608,607
80,180,90,180,250,450,440,430,4,58,57
140,320,140,310,160,380,80,90,11,515,514
410,300,410,290,120,190,400,390,8,335,334
370,430,380,430,100,330,370,380,14,744,743
390,100,400,100,460,70,100,90,18,781,780
110,50,120,50,70,40,50,60,3,-1,-2
430,410,430,400,420,410,10,20,22,1246,1245
400,100,410,100,460,70,90,80,18,780,779
450,380,450,370,150,450,370,380,23,1308,1307
150,150,150,140,160,250,110,120,25,1241,1240
440,260,440,270,410,310,80,70,13,547,546
80,100,90,100,460,70,410,400,18,812,811
230,390,240,390,390,400,170,160,9,311,310
410,220,400,220,410,210,10,20,14,619,618
270,340,260,340,100,330,180,170,14,723,722
40,80,50,80,240,110,230,220,24,1206,1205
410,320,410,330,410,360,40,30,21,1168,1167
360,400,360,410,290,450,120,110,17,901,900
440,210,440,220,410,310,130,120,13,552,551
20,220,20,210,20,60,160,150,10,332,331
420,220,410,220,420,260,40,50,20,1110,1109
250,420,260,420,460,190,440,430,5,102,101
400,340,400,350,70,470,460,450,15,685,684
170,40,180,40,170,260,220,230,8,257,256
150,240,150,230,160,250,20,30,25,1250,1249
210,320,220,320,290,280,120,110,28,1619,1618
360,140,360,150,360,270,130,120,3,-35,-36
430,370,430,360,420,410,50,60,22,1242,1241
80,220,90,220,370,220,290,280,15,791,790
210,110,220,110,420,120,220,210,25,1413,1412
350,210,350,200,120,190,250,240,8,320,319
390,420,400,420,460,190,300,290,5,88,87
150,350,150,360,160,380,40,30,11,509,508
180,390,190,390,360,430,220,210,13,666,665
170,170,170,180,180,360,200,190,10,450,449
450,400,450,390,150,450,350,360,23,1310,1309
250,430,250,440,250,450,20,10,4,16,15
310,450,300,450,290,450,20,10,17,891,890
100,110,110,110,420,120,330,320,25,1424,1423
200,70,200,80,170,260,220,210,8,251,250
240,340,230,340,100,330,150,140,14,720,719
70,220,80,220,370,220,300,290,15,792,791
60,470,50,470,380,410,380,390,16,739,0
240,370,250,370,210,280,120,130,18,969,968
360,330,360,340,290,450,190,180,17,908,907
450,420,450,410,460,190,240,230,5,82,81
460,230,460,220,460,190,40,30,5,62,61
380,220,390,220,450,130,160,150,16,862,861
160,250,160,240,160,60,190,180,7,178,177
190,240,180,240,20,90,320,310,23,1140,1139
400,390,400,400,70,470,410,400,15,680,679
130,220,140,220,370,220,240,230,15,786,785
130,400,140,400,470,420,360,350,28,1463,1462
180,430,170,430,360,430,180,190,13,680,679
420,150,420,160,460,200,90,80,26,1489,1488
370,50,360,50,280,150,190,180,19,861,860
360,160,360,170,290,450,360,350,17,925,924
250,230,250,240,20,90,370,380,23,1147,1146
270,220,270,210,180,150,160,150,5,134,133
420,170,420,160,60,70,460,450,17,772,771
60,130,60,120,420,120,370,360,25,1430,1429
430,180,430,190,60,280,470,460,6,149,148
60,280,50,280,160,60,320,330,7,203,202
190,390,200,390,390,400,210,200,9,315,314
440,150,440,160,410,310,190,180,13,558,557
160,450,150,450,150,450,10,0,23,1270,1370
60,440,50,440,20,60,420,410,10,358,357
450,130,450,120,290,450,480,490,17,947,946
60,350,60,340,60,330,20,10,24,1351,1350
140,310,150,310,160,380,90,80,11,514,513
130,320,140,320,290,280,200,190,28,1627,1626
420,150,420,160,460,200,90,80,26,1489,1488
100,310,110,310,160,60,310,300,7,190,189
400,350,400,360,70,470,450,440,15,684,683
20,180,20,170,20,60,120,110,10,328,327
70,440,60,440,20,60,430,420,10,359,358
140,70,130,70,60,70,80,70,17,734,733
200,400,210,400,470,420,290,280,28,1456,1455
410,300,410,290,120,190,400,390,8,335,334
360,430,370,430,100,330,360,370,14,745,744
240,420,240,430,360,430,130,120,13,657,656
250,70,240,70,60,70,190,180,17,745,744
390,440,380,440,20,60,750,740,10,391,390
300,280,290,280,60,280,240,230,6,126,125
420,300,410,300,410,130,180,170,21,999,998
100,330,90,330,370,220,380,390,15,806,805
450,420,460,420,470,420,20,10,28,1429,1428
420,110,420,100,60,70,400,390,17,766,765
140,110,150,110,420,120,290,280,25,1420,1419
270,270,270,260,270,220,50,40,4,38,37
180,220,190,220,370,220,190,180,15,781,780
460,310,460,300,460,190,120,110,5,70,69
20,150,20,140,20,60,90,80,10,325,324
380,360,380,350,100,330,310,300,14,736,735
410,420,420,420,470,420,60,50,28,1433,1432
170,180,180,180,250,450,350,340,4,49,48
150,140,150,130,160,250,120,130,25,1240,1239
440,280,440,290,410,310,60,50,13,545,544
360,140,360,150,360,270,130,120,3,-35,-36
180,420,180,430,360,430,190,180,13,681,680
410,390,400,390,420,410,30,40,22,1262,1261
220,420,230,420,460,190,470,460,5,105,104
420,250,420,240,410,210,50,40,14,623,622
440,100,440,110,410,310,240,230,13,563,562
360,220,370,220,370,220,10,0,15,763,863
330,440,320,440,20,60,690,680,10,385,384
410,80,400,80,290,450,490,480,17,938,937
370,400,360,400,420,410,60,70,22,1223,1222
130,330,120,330,100,330,30,20,14,708,707
220,110,230,110,420,120,210,200,25,1412,1411
420,180,420,170,60,70,470,460,17,773,772
160,160,160,170,160,250,90,80,25,1233,1232
380,280,370,280,60,280,320,310,6,134,133
170,390,180,390,390,400,230,220,9,317,316
140,350,140,340,160,380,50,60,11,518,517
450,210,440,210,410,210,40,30,14,602,601
360,280,350,280,130,280,230,220,27,1563,1562
160,470,150,470,70,470,90,80,15,648,0
250,150,250,160,250,200,50,40,22,1054,1053
370,280,360,280,130,280,240,230,27,1564,1563
350,70,340,70,60,70,290,280,17,755,754
180,390,180,400,360,430,220,210,13,684,683
400,460,400,470,70,470,340,330,15,673,672
230,280,220,280,60,280,170,160,6,119,118
230,400,240,400,470,420,260,250,28,1453,1452
140,10,150,10,250,10,110,100,11,400,399
70,170,70,160,120,20,200,190,9,389,388
110,10,120,10,250,10,140,130,11,403,402
220,440,210,440,20,60,580,570,10,374,373
160,50,170,50,360,270,420,410,3,-6,-7
410,370,400,370,150,450,340,330,23,1303,1302
190,340,180,340,180,390,60,50,12,589,588
360,270,360,280,270,220,140,150,4,53,52
400,210,400,220,70,470,590,580,15,698,697
220,400,230,400,470,420,270,260,28,1454,1453
240,450,230,450,210,280,200,190,18,985,984
360,300,360,290,410,210,140,130,14,634,633
140,240,130,240,20,90,270,260,23,1135,1134
180,400,170,400,160,380,40,30,11,527,526
350,10,360,10,440,80,160,150,12,480,479
190,390,190,400,360,430,210,200,13,665,664
360,160,360,170,290,450,360,350,17,925,924
60,390,60,380,60,330,60,50,24,1355,1354
100,190,90,190,120,20,190,200,9,394,393
250,170,250,180,250,200,30,20,22,1052,1051
350,50,360,50,360,270,230,220,3,-25,-26
280,350,280,340,210,280,140,130,18,963,962
190,450,180,450,150,450,40,30,23,1273,1272
460,420,470,420,470,420,10,0,28,1428,0
330,10,340,10,440,80,180,170,12,482,481
260,390,270,390,400,390,140,130,7,258,257
250,160,260,160,300,160,50,40,19,1034,1033
170,320,180,320,290,280,160,150,28,1623,1622
250,110,260,110,160,250,230,240,25,1283,1282
170,290,170,300,390,400,330,320,9,327,326
20,180,20,170,20,90,90,80,23,1117,1116
160,280,150,280,130,280,30,20,27,1543,1542
380,410,390,410,60,70,660,670,17,800,799
210,110,220,110,240,110,30,20,24,1186,1185
430,360,430,350,420,410,60,70,22,1241,1240
400,370,400,380,70,470,430,420,15,682,681
20,180,20,170,20,60,120,110,10,328,327
200,70,190,70,60,70,140,130,17,740,739
70,290,70,300,470,420,530,520,28,1480,1479
70,240,80,240,80,350,120,110,6,191,190
320,280,310,280,130,280,190,180,27,1559,1558
210,340,200,340,100,330,120,110,14,717,716
140,20,150,20,180,360,380,370,10,468,467
300,50,290,50,280,150,120,110,19,854,853
280,200,280,210,390,370,280,270,20,938,937
430,200,430,210,420,260,70,60,20,1113,1112
160,140,160,130,160,60,80,70,7,167,166
280,210,280,220,390,370,270,260,20,937,936
180,120,180,110,80,350,330,340,6,216,215
200,340,200,330,100,330,110,100,14,716,715
400,390,410,390,120,190,480,490,8,345,344
240,450,230,450,150,450,90,80,23,1278,1277
60,170,60,180,250,450,470,460,4,61,60
410,310,410,320,420,260,60,70,20,1100,1099
110,320,120,320,290,280,220,210,28,1629,1628
190,400,190,390,180,390,20,10,12,595,594
250,220,250,230,20,90,360,370,23,1148,1147
340,470,330,470,70,470,270,260,15,666,0
330,10,340,10,440,80,180,170,12,482,481
170,230,170,240,180,360,140,130,10,444,443
70,70,60,70,60,70,10,0,17,727,827
370,390,380,390,400,390,30,20,7,247,246
150,180,150,170,120,140,70,60,27,1406,1405
310,390,320,390,400,390,90,80,7,253,252
390,10,400,10,440,80,120,110,12,476,475
270,110,280,110,420,120,160,150,25,1407,1406
20,240,20,230,20,60,180,170,10,334,333
400,230,400,240,410,360,140,130,21,1178,1177
70,420,70,410,60,330,100,90,24,1359,1358
170,170,170,180,180,360,200,190,10,450,449
80,360,80,370,400,390,350,340,7,279,278
180,330,180,340,180,360,30,20,10,433,432
460,320,460,310,460,190,130,120,5,71,70
110,140,100,140,470,420,640,650,28,1499,1498
60,270,60,260,420,120,510,500,25,1444,1443
250,400,250,410,470,420,240,230,28,1451,1450
360,440,350,440,20,60,720,710,10,388,387
150,300,150,290,150,190,110,100,26,1317,1316
200,60,200,70,170,260,230,220,8,252,251
140,20,150,20,180,360,380,370,10,468,467
400,240,400,230,410,130,120,110,21,991,990
420,200,430,200,410,210,20,30,14,606,605
180,340,180,350,180,360,20,10,10,432,431
170,110,180,110,240,110,70,60,24,1190,1189
180,390,180,400,160,380,30,40,11,528,527
410,270,410,280,420,260,20,30,20,1104,1103
330,50,320,50,280,150,150,140,19,857,856
270,160,280,160,300,160,30,20,19,1032,1031
360,310,360,300,410,210,150,140,14,635,634
340,390,350,390,400,390,60,50,7,250,249
230,70,220,70,60,70,170,160,17,743,742
160,80,160,70,160,60,20,10,7,161,160
430,100,440,100,460,70,60,50,18,777,776
280,280,280,290,270,350,80,70,29,1693,1692
200,150,190,150,160,250,140,130,25,1268,1267
150,310,160,310,160,60,260,250,7,185,184
230,410,240,410,360,430,150,140,13,659,658
160,290,160,300,150,190,110,120,26,1321,1320
70,70,70,60,120,20,100,90,9,379,378
170,350,170,360,390,400,270,260,9,321,320
280,220,290,220,370,220,90,80,15,771,770
460,190,460,180,60,280,490,500,6,159,158
150,260,150,250,150,190,70,60,26,1313,1312
410,270,410,260,120,190,370,360,8,332,331
210,170,210,160,300,160,100,90,19,1039,1038
120,280,110,280,290,280,170,180,28,1640,1639
150,20,160,20,180,360,370,360,10,467,466
70,100,70,90,120,20,130,120,9,382,381
300,390,310,390,400,390,100,90,7,254,253
380,400,380,390,100,330,350,340,14,740,739
410,250,410,260,420,260,20,10,20,1106,1105
150,280,150,270,150,190,90,80,26,1315,1314
150,270,150,260,150,190,80,70,26,1314,1313
90,450,80,450,60,330,150,140,24,1364,1363
360,390,360,400,290,450,130,120,17,902,901
460,90,460,80,460,70,20,10,18,773,772
260,10,270,10,440,80,250,240,12,489,488
460,200,460,210,130,280,410,400,27,1581,1580
340,300,330,300,270,220,150,140,4,48,47
340,410,350,410,470,420,140,130,28,1441,1440
20,420,20,410,20,60,360,350,10,352,351
420,190,420,180,60,70,480,470,17,774,773
410,100,420,100,460,70,80,70,18,779,778
200,50,210,50,70,40,140,150,3,-10,-11
250,320,260,320,290,280,80,70,28,1615,1614
210,190,210,180,300,160,120,110,19,1041,1040
200,100,210,100,460,70,290,280,18,800,799
30,200,30,190,20,90,120,110,23,1120,1119
70,170,70,180,470,420,650,640,28,1492,1491
430,200,430,190,410,360,180,190,21,1186,1185
210,110,220,110,240,110,30,20,24,1186,1185
20,160,20,150,20,60,100,90,10,326,325
410,350,410,340,120,190,450,440,8,340,339
300,10,310,10,440,80,210,200,12,485,484
440,260,440,270,410,310,80,70,13,547,546
130,50,140,50,70,40,70,80,3,-3,-4
220,430,220,420,380,410,180,170,16,717,716
260,220,270,220,370,220,110,100,15,773,772
390,410,400,410,470,420,90,80,28,1436,1435
230,50,240,50,360,270,350,340,3,-13,-14
90,240,80,240,20,90,220,210,23,1130,1129
150,110,160,110,420,120,280,270,25,1419,1418
20,340,20,330,20,60,280,270,10,344,343
360,430,360,440,290,450,90,80,17,898,897
130,430,130,420,360,430,230,240,13,675,674
460,300,460,290,460,190,110,100,5,69,68
250,120,250,130,250,200,80,70,22,1057,1056
280,420,290,420,460,190,410,400,5,99,98
370,470,360,470,70,470,300,290,15,669,0
200,50,210,50,360,270,380,370,3,-10,-11
140,100,150,100,460,70,350,340,18,806,805
390,110,400,110,420,120,40,30,25,1395,1394
100,30,100,20,250,10,170,160,11,406,405
290,70,280,70,60,70,230,220,17,749,748
360,410,370,410,470,420,120,110,28,1439,1438
280,370,290,370,390,370,110,100,20,921,920
110,390,120,390,400,390,290,280,7,273,272
300,410,310,410,380,410,80,70,16,707,706
230,280,220,280,60,280,170,160,6,119,118
270,280,260,280,130,280,140,130,27,1554,1553
240,180,230,180,180,150,90,80,5,127,126
420,280,420,270,410,210,80,70,14,626,625
220,180,210,180,180,150,70,60,5,125,124
370,370,380,370,390,370,20,10,20,912,911
440,90,440,100,410,310,250,240,13,564,563
160,270,160,260,160,60,210,200,7,180,179
20,80,30,80,240,110,250,240,24,1208,1207
150,180,160,180,250,450,370,360,4,51,50
440,180,440,190,410,310,160,150,13,555,554
400,290,400,300,70,470,510,500,15,690,689
290,310,290,300,290,280,30,20,28,1610,1609
220,280,210,280,130,280,90,80,27,1549,1548
200,70,190,70,60,70,140,130,17,740,739
250,420,260,420,380,410,140,130,16,713,712
360,230,360,240,290,450,290,280,17,918,917
190,370,190,360,180,390,30,40,12,592,591
20,290,20,280,20,60,230,220,10,339,338
100,450,90,450,60,330,160,150,24,1365,1364
400,290,400,300,410,360,80,70,21,1172,1171
360,130,360,140,360,270,140,130,3,-34,-35
260,70,250,70,60,70,200,190,17,746,745
290,220,300,220,370,220,80,70,15,770,769
60,90,60,100,250,450,550,540,4,69,68
430,200,440,200,410,210,30,40,14,605,604
70,230,70,240,470,420,590,580,28,1486,1485
370,350,360,350,100,330,290,280,14,734,733
280,320,290,320,290,280,50,40,28,1612,1611
300,110,310,110,420,120,130,120,25,1404,1403
410,390,410,380,120,190,490,480,8,344,343
160,190,160,200,160,250,60,50,25,1230,1229
210,370,220,370,210,280,90,100,18,972,971
60,280,50,280,160,60,320,330,7,203,202
70,220,70,230,470,420,600,590,28,1487,1486
240,50,250,50,360,270,340,330,3,-14,-15
360,190,360,200,360,270,80,70,3,-40,-41
330,370,340,370,390,370,60,50,20,916,915
180,150,180,160,170,260,120,110,8,241,240
410,280,410,290,420,260,30,40,20,1103,1102
410,170,410,160,410,130,40,30,21,983,982
330,390,340,390,400,390,70,60,7,251,250
160,40,170,40,170,260,230,220,8,258,257
80,440,70,440,20,60,440,430,10,360,359
420,380,420,390,420,410,30,20,22,1230,1229
360,410,370,410,420,410,60,50,22,1219,1218
460,250,460,240,460,190,60,50,5,64,63
270,420,280,420,460,190,420,410,5,100,99
320,420,330,420,460,190,370,360,5,95,94
360,120,360,130,290,450,400,390,17,929,928
30,80,40,80,240,110,240,230,24,1207,1206
190,40,200,40,170,260,240,250,8,255,254
280,300,270,300,270,220,90,80,4,42,41
420,410,420,400,60,70,700,690,17,796,795
240,290,230,290,210,280,40,30,18,953,952
230,450,220,450,460,190,490,500,5,113,112
150,230,150,220,160,250,30,40,25,1249,1248
250,450,240,450,210,280,210,200,18,986,985
130,110,120,110,80,350,290,280,6,210,209
140,450,130,450,60,330,200,190,24,1369,1368
380,80,370,80,290,450,460,450,17,935,934
150,110,160,110,420,120,280,270,25,1419,1418
430,150,430,160,60,280,500,490,6,152,151
410,310,410,300,120,190,410,400,8,336,335
160,310,160,300,160,60,250,240,7,184,183
380,220,370,220,410,210,40,50,14,616,615
240,320,250,320,290,280,90,80,28,1616,1615
120,470,110,470,70,470,50,40,15,644,0
430,320,420,320,420,410,100,90,22,1237,1236
280,220,290,220,370,220,90,80,15,771,770
240,390,250,390,400,390,160,150,7,260,259
410,250,400,250,130,280,310,300,27,1571,1570
250,140,250,150,250,200,60,50,22,1055,1054
310,220,320,220,370,220,60,50,15,768,767
420,360,420,370,420,410,50,40,22,1232,1231
240,320,250,320,290,280,90,80,28,1616,1615
210,450,200,450,150,450,60,50,23,1275,1274
450,100,460,100,460,70,40,30,18,775,774
400,440,400,450,70,470,360,350,15,675,674
170,440,160,440,20,60,530,520,10,369,368
450,370,440,370,150,450,380,370,23,1307,1306
100,110,110,110,240,110,140,130,24,1197,1196
160,280,160,270,160,60,220,210,7,181,180
230,100,240,100,460,70,260,250,18,797,796
340,470,330,470,70,470,270,260,15,666,0
170,430,180,430,380,410,230,220,16,722,721
210,320,220,320,290,280,120,110,28,1619,1618
80,250,80,260,80,350,100,90,6,189,188
180,470,170,470,70,470,110,100,15,650,0
370,410,380,410,420,410,50,40,22,1218,1217
160,220,160,210,160,60,160,150,7,175,174
200,200,190,200,120,190,90,80,8,304,303
250,280,240,280,130,280,120,110,27,1552,1551
140,110,150,110,420,120,290,280,25,1420,1419
120,330,110,330,100,330,20,10,14,707,706
190,280,180,280,60,280,130,120,6,115,114
150,120,160,120,160,250,140,130,25,1238,1237
380,200,390,200,410,210,40,30,14,610,609
460,350,460,340,460,190,160,150,5,74,73
70,310,80,310,160,60,340,330,7,193,192
300,300,290,300,270,220,110,100,4,44,43
260,290,250,290,210,280,60,50,18,955,954
210,390,220,390,400,390,190,180,7,263,262
70,50,70,40,120,20,80,70,9,377,376
190,240,180,240,20,90,320,310,23,1140,1139
70,110,70,120,80,350,250,240,6,204,203
440,70,440,80,440,80,10,0,12,465,565
420,250,420,240,410,210,50,40,14,623,622
70,180,70,190,470,420,640,630,28,1491,1490
420,220,410,220,410,210,20,10,14,620,619
400,290,400,280,410,130,170,160,21,996,995
460,230,460,240,130,280,380,370,27,1578,1577
220,340,210,340,100,330,130,120,14,718,717
150,220,160,220,370,220,220,210,15,784,783
420,410,430,410,150,450,310,320,23,1314,1313
150,270,150,260,150,190,80,70,26,1314,1313
250,290,240,290,210,280,50,40,18,954,953
250,380,250,390,250,450,70,60,4,21,20
280,350,280,340,210,280,140,130,18,963,962
110,50,120,50,70,40,50,60,3,-1,-2
210,280,200,280,60,280,150,140,6,117,116
260,150,250,150,160,250,200,190,25,1274,1273
210,210,210,200,300,160,140,130,19,1043,1042
390,430,390,440,20,60,740,750,10,392,391
240,390,250,390,390,400,160,150,9,310,309
110,390,120,390,400,390,290,280,7,273,272
280,370,280,360,210,280,160,150,18,965,964
190,200,190,210,160,250,80,70,25,1262,1261
150,220,150,210,150,190,30,20,26,1309,1308
370,420,380,420,420,410,60,50,22,1253,1252
400,220,390,220,410,210,20,30,14,618,617
430,180,430,190,420,260,90,80,20,1115,1114
20,50,20,40,250,10,270,260,11,416,415
20,160,20,150,20,90,70,60,23,1115,1114
160,70,160,60,160,60,10,0,7,160,260
420,240,420,230,60,70,530,520,17,779,778
280,280,270,280,130,280,150,140,27,1555,1554
440,420,450,420,460,190,250,240,5,83,82
200,200,190,200,120,190,90,80,8,304,303
420,290,420,280,60,70,580,570,17,784,783
170,240,170,250,180,360,130,120,10,443,442
460,300,460,290,460,190,110,100,5,69,68
130,420,130,410,360,430,240,250,13,674,673
420,260,420,250,410,210,60,50,14,624,623
60,160,60,170,250,450,480,470,4,62,61
250,360,250,370,250,450,90,80,4,23,22
320,110,330,110,420,120,110,100,25,1402,1401
440,310,430,310,410,310,30,20,13,542,541
360,350,360,360,290,450,170,160,17,906,905
50,450,50,440,380,410,370,360,16,736,735
100,180,110,180,250,450,420,410,4,56,55
70,350,70,360,470,420,470,460,28,1474,1473
140,180,150,180,250,450,380,370,4,52,51
440,150,440,160,410,310,190,180,13,558,557
190,240,190,250,160,250,40,30,25,1258,1257
180,340,180,350,180,390,50,40,12,588,587
330,410,340,410,380,410,50,40,16,704,703
430,340,430,330,420,410,80,90,22,1239,1238
140,330,130,330,100,330,40,30,14,709,708
290,70,280,70,60,70,230,220,17,749,748
200,40,200,50,170,260,250,240,8,254,253
270,190,270,180,180,150,130,120,5,131,130
400,230,400,240,70,470,570,560,15,696,695
130,390,140,390,360,430,270,260,13,671,670
120,110,130,110,240,110,120,110,24,1195,1194
70,330,70,320,370,220,410,400,15,803,802
130,280,120,280,60,280,70,60,6,109,108
350,370,360,370,390,370,40,30,20,914,913
220,370,230,370,210,280,100,110,18,971,970
70,210,70,220,80,350,150,140,6,194,193
70,310,70,300,370,220,390,380,15,801,800
280,160,290,160,300,160,20,10,19,1031,1030
40,280,30,280,160,60,340,350,7,201,200
150,50,160,50,360,270,430,420,3,-5,-6
230,200,220,200,120,190,120,110,8,307,306
280,100,290,100,460,70,210,200,18,792,791
400,260,400,270,70,470,540,530,15,693,692
400,390,400,400,70,470,410,400,15,680,679
430,250,420,250,130,280,330,320,27,1573,1572
90,470,80,470,70,470,20,10,15,641,0
160,410,160,420,180,390,40,50,12,603,602
340,370,350,370,390,370,50,40,20,915,914
20,130,20,120,20,60,70,60,10,323,322
210,270,210,260,300,160,200,190,19,1049,1048
260,450,250,450,150,450,110,100,23,1280,1279
80,280,80,290,290,280,210,220,28,1636,1635
70,250,70,260,470,420,570,560,28,1484,1483
170,110,160,110,80,350,330,320,6,214,213
70,280,70,290,470,420,540,530,28,1481,1480
170,160,170,170,180,360,210,200,10,451,450
60,240,50,240,20,90,190,180,23,1127,1126
110,110,120,110,420,120,320,310,25,1423,1422
410,330,410,320,120,190,430,420,8,338,337
10,70,10,80,460,70,450,460,18,822,821
200,440,200,430,460,190,510,500,5,109,108
150,280,140,280,60,280,90,80,6,111,110
160,220,170,220,370,220,210,200,15,783,782
20,310,20,300,20,60,250,240,10,341,340
170,180,170,190,180,360,190,180,10,449,448
180,300,180,310,180,360,60,50,10,436,435
460,200,460,190,460,190,10,0,5,59,159
230,220,230,230,250,450,250,240,4,39,38
160,110,160,100,160,60,50,40,7,164,163
420,280,420,270,410,210,80,70,14,626,625
410,110,410,100,250,200,250,260,22,1078,1077
210,410,220,410,360,430,170,160,13,661,660
30,230,30,220,20,90,150,140,23,1123,1122
190,200,190,210,160,250,80,70,25,1262,1261
110,20,120,20,120,20,10,0,9,370,470
250,330,250,340,250,450,120,110,4,26,25
440,270,440,280,410,310,70,60,13,546,545
160,310,150,310,150,190,130,120,26,1319,1318
200,40,200,50,170,260,250,240,8,254,253
400,280,400,270,410,130,160,150,21,995,994
420,350,420,340,60,70,640,630,17,790,789
20,140,20,130,20,60,80,70,10,324,323
340,390,350,390,400,390,60,50,7,250,249
370,220,380,220,450,130,170,160,16,863,862
160,280,150,280,60,280,100,90,6,112,111
250,200,240,200,120,190,140,130,8,309,308
110,180,120,180,250,450,410,400,4,55,54
140,110,150,110,240,110,100,90,24,1193,1192
60,200,60,190,420,120,440,430,25,1437,1436
180,250,180,260,180,360,110,100,10,441,440
170,190,160,190,120,190,50,40,8,300,299
410,180,410,170,450,130,90,80,16,855,854
180,320,190,320,290,280,150,140,28,1622,1621
280,390,290,390,390,400,120,110,9,306,305
100,20,100,10,250,10,160,150,11,405,404
290,100,300,100,460,70,200,190,18,791,790
160,370,160,380,160,380,10,0,11,506,606
360,250,360,260,360,270,20,10,3,-46,-47
250,340,250,350,250,450,110,100,4,25,24
150,280,140,280,130,280,20,10,27,1542,1541
180,110,180,120,170,260,160,150,8,245,244
460,280,460,270,460,190,90,80,5,67,66
270,240,270,230,270,220,20,10,4,35,34
80,280,80,290,80,350,70,60,6,186,185
160,470,150,470,70,470,90,80,15,648,0
360,280,370,280,410,210,120,110,14,632,631
20,320,20,310,20,60,260,250,10,342,341
400,250,400,260,410,360,120,110,21,1176,1175
410,210,410,200,410,130,80,70,21,987,986
420,400,420,390,60,70,690,680,17,795,794
50,440,40,440,20,60,410,400,10,357,356
410,330,410,320,120,190,430,420,8,338,337
420,370,420,380,420,410,40,30,22,1231,1230
210,100,220,100,460,70,280,270,18,799,798
160,310,160,300,160,60,250,240,7,184,183
460,200,460,190,460,190,10,0,5,59,159
410,290,410,300,420,260,40,50,20,1102,1101
180,330,170,330,100,330,80,70,14,713,712
280,210,280,220,390,370,270,260,20,937,936
280,450,270,450,150,450,130,120,23,1282,1281
250,290,240,290,210,280,50,40,18,954,953
80,300,80,310,80,350,50,40,6,184,183
450,150,440,150,60,280,520,510,6,154,153
230,200,230,210,250,450,270,260,4,41,40
200,470,190,470,70,470,130,120,15,652,0
420,200,420,190,60,70,490,480,17,775,774
290,220,290,210,270,350,150,160,29,1702,1701
280,190,280,200,390,370,290,280,20,939,938
210,150,200,150,160,250,150,140,25,1269,1268
70,80,70,70,120,20,110,100,9,380,379
370,160,380,160,420,260,150,140,20,1123,1122
70,160,70,170,470,420,660,650,28,1493,1492
190,40,200,40,170,260,240,250,8,255,254
60,100,70,100,460,70,430,420,18,814,813
390,410,390,420,20,60,720,730,10,394,393
280,70,280,80,280,150,80,70,19,850,849
80,260,80,270,80,350,90,80,6,188,187
300,420,310,420,460,190,390,380,5,97,96
310,200,300,200,120,190,200,190,8,315,314
280,430,290,430,360,430,80,70,13,652,651
150,160,150,150,160,250,100,110,25,1242,1241
160,120,160,110,160,60,60,50,7,165,164
350,410,360,410,470,420,130,120,28,1440,1439
210,250,210,240,300,160,180,170,19,1047,1046
60,170,60,160,420,120,410,400,25,1434,1433
70,100,80,100,460,70,420,410,18,813,812
270,10,280,10,440,80,240,230,12,488,487
200,370,210,370,210,280,100,90,18,973,972
20,150,20,140,20,90,60,50,23,1114,1113
60,280,60,270,420,120,520,510,25,1445,1444
450,410,450,400,150,450,340,350,23,1311,1310
70,350,70,360,470,420,470,460,28,1474,1473
420,270,420,260,410,210,70,60,14,625,624
450,50,440,50,280,150,270,260,19,869,868
200,390,210,390,390,400,200,190,9,314,313
130,320,140,320,290,280,200,190,28,1627,1626
140,400,140,390,160,380,40,30,11,523,522
60,80,70,80,240,110,210,200,24,1204,1203
380,410,390,410,420,410,40,30,22,1217,1216
270,10,280,10,440,80,240,230,12,488,487
410,220,410,210,410,130,90,80,21,988,987
400,220,390,220,410,210,20,30,14,618,617
280,320,280,330,390,370,160,150,20,926,925
440,190,450,190,460,200,30,20,26,1483,1482
60,100,70,100,460,70,430,420,18,814,813
250,150,240,150,160,250,190,180,25,1273,1272
260,100,270,100,460,70,230,220,18,794,793
360,300,360,310,290,450,220,210,17,911,910
70,110,70,100,120,20,140,130,9,383,382
420,370,420,360,60,70,660,650,17,792,791
450,420,450,410,460,190,240,230,5,82,81
150,230,150,220,160,250,30,40,25,1249,1248
190,170,190,180,160,250,110,100,25,1265,1264
400,320,400,330,70,470,480,470,15,687,686
240,340,230,340,100,330,150,140,14,720,719
420,280,410,280,60,280,360,350,6,138,137
180,420,180,430,360,430,190,180,13,681,680
160,70,160,80,180,360,310,300,10,461,460
310,390,320,390,390,400,90,80,9,303,302
310,220,320,220,370,220,60,50,15,768,767
320,470,310,470,70,470,250,240,15,664,0
150,390,160,390,360,430,250,240,13,669,668
230,370,240,370,210,280,110,120,18,970,969
170,220,180,220,370,220,200,190,15,782,781
160,220,170,220,370,220,210,200,15,783,782
270,250,270,240,270,220,30,20,4,36,35
410,410,410,420,470,420,70,60,28,1434,1433
440,270,440,280,410,310,70,60,13,546,545
20,430,20,420,20,60,370,360,10,353,352
190,390,190,400,360,430,210,200,13,665,664
30,300,30,310,160,60,370,380,7,198,197
120,40,110,40,70,40,50,40,3,-21,-22
420,230,420,220,410,210,30,20,14,621,620
440,190,440,200,410,310,150,140,13,554,553
390,410,400,410,60,70,670,680,17,799,798
460,240,460,230,460,190,50,40,5,63,62
400,310,390,310,410,210,110,120,14,639,638
260,100,270,100,460,70,230,220,18,794,793
210,290,210,280,210,280,10,0,18,950,1050
380,210,370,210,120,190,280,270,8,323,322
360,150,360,160,360,270,120,110,3,-36,-37
260,440,250,440,20,60,620,610,10,378,377
340,430,350,430,360,430,20,10,13,646,645
190,360,190,350,180,390,40,50,12,591,590
260,180,250,180,180,150,110,100,5,129,128
420,280,420,270,420,260,20,10,20,1094,1093
160,210,160,220,160,250,40,30,25,1228,1227
360,150,360,160,290,450,370,360,17,926,925
20,100,20,90,20,60,40,30,10,320,319
160,150,160,140,160,60,90,80,7,168,167
20,270,20,260,20,60,210,200,10,337,336
70,270,70,280,470,420,550,540,28,1482,1481
250,270,250,280,250,450,180,170,4,32,31
180,180,180,170,180,150,30,20,5,121,120
410,160,410,150,410,130,30,20,21,982,981
400,380,400,390,70,470,420,410,15,681,680
170,370,170,380,390,400,250,240,9,319,318
380,390,390,390,400,390,20,10,7,246,245
190,320,200,320,290,280,140,130,28,1621,1620
410,290,410,300,420,260,40,50,20,1102,1101
250,220,260,220,370,220,120,110,15,774,773
280,170,280,180,390,370,310,300,20,941,940
160,170,160,180,160,250,80,70,25,1232,1231
110,440,100,440,20,60,470,460,10,363,362
160,280,150,280,60,280,100,90,6,112,111
240,200,230,200,120,190,130,120,8,308,307
340,420,350,420,460,190,350,340,5,93,92
430,190,420,190,410,360,190,180,21,1185,1184
70,450,70,440,60,330,130,120,24,1362,1361
360,290,360,300,290,450,230,220,17,912,911
250,340,250,350,250,450,110,100,4,25,24
400,360,400,370,70,470,440,430,15,683,682
360,260,360,270,360,270,10,0,3,-47,53
410,220,400,220,410,210,10,20,14,619,618
60,340,60,330,60,330,10,0,24,1350,1450
360,250,360,260,290,450,270,260,17,916,915
330,410,340,410,470,420,150,140,28,1442,1441
390,280,400,280,410,210,90,80,14,629,628
390,50,380,50,280,150,210,200,19,863,862
280,440,270,440,20,60,640,630,10,380,379
250,100,260,100,460,70,240,230,18,795,794
250,450,240,450,150,450,100,90,23,1279,1278
400,230,400,220,410,130,110,100,21,990,989
440,130,440,140,410,310,210,200,13,560,559
330,420,330,430,150,450,210,200,23,1290,1289
180,330,180,340,180,360,30,20,10,433,432
460,290,460,280,460,190,100,90,5,68,67
410,220,410,210,410,130,90,80,21,988,987
90,400,100,400,470,420,400,390,28,1467,1466
250,10,260,10,440,80,260,250,12,490,489
120,190,110,190,120,20,170,180,9,396,395
160,400,170,400,470,420,330,320,28,1460,1459
320,70,310,70,60,70,260,250,17,752,751
70,200,70,210,80,350,160,150,6,195,194
110,240,100,240,20,90,240,230,23,1132,1131
180,180,180,190,170,260,90,80,8,238,237
170,160,170,170,180,360,210,200,10,451,450
70,310,80,310,160,60,340,330,7,193,192
150,260,150,250,160,250,20,10,25,1252,1251
440,50,430,50,280,150,260,250,19,868,867
250,390,250,400,250,450,60,50,4,20,19
170,150,170,160,180,360,220,210,10,452,451
250,120,250,130,250,200,80,70,22,1057,1056
230,420,240,420,380,410,160,150,16,715,714
200,410,200,400,210,280,140,130,18,977,976
260,220,270,220,370,220,110,100,15,773,772
380,410,390,410,420,410,40,30,22,1217,1216
110,400,120,400,470,420,380,370,28,1465,1464
430,390,430,380,420,410,30,40,22,1244,1243
210,220,210,210,300,160,150,140,19,1044,1043
410,310,410,320,410,360,50,40,21,1169,1168
310,10,320,10,440,80,200,190,12,484,483
250,470,240,470,70,470,180,170,15,657,0
190,150,190,160,160,250,130,120,25,1267,1266
230,110,240,110,240,110,10,0,24,1184,1284
260,450,250,450,210,280,220,210,18,987,986
380,280,370,280,60,280,320,310,6,134,133
380,390,380,380,100,330,340,330,14,739,738
380,380,380,370,100,330,330,320,14,738,737
240,160,250,160,300,160,60,50,19,1035,1034
100,10,110,10,250,10,150,140,11,404,403
250,410,250,420,250,450,40,30,4,18,17
70,370,70,380,470,420,450,440,28,1472,1471
110,450,100,450,60,330,170,160,24,1366,1365
240,400,250,400,470,420,250,240,28,1452,1451
290,10,300,10,440,80,220,210,12,486,485
180,10,190,10,250,10,70,60,11,396,395
460,350,460,340,460,190,160,150,5,74,73
80,380,80,390,400,390,330,320,7,277,276
90,110,100,110,240,110,150,140,24,1198,1197
190,180,180,180,180,150,40,30,5,122,121
160,50,160,40,170,260,220,230,8,259,258
250,180,250,190,250,200,20,10,22,1051,1050
340,430,350,430,360,430,20,10,13,646,645
360,250,360,260,290,450,270,260,17,916,915
410,50,400,50,280,150,230,220,19,865,864
130,110,140,110,420,120,300,290,25,1421,1420
360,110,360,120,360,270,160,150,3,-32,-33
210,160,220,160,300,160,90,80,19,1038,1037
280,300,280,290,210,280,90,80,18,958,957
360,280,360,290,290,450,240,230,17,913,912
190,350,190,340,180,390,50,60,12,590,589
280,160,280,170,390,370,320,310,20,942,941
180,280,170,280,130,280,50,40,27,1545,1544
70,110,70,100,120,20,140,130,9,383,382
410,380,410,370,120,190,480,470,8,343,342
420,360,420,350,60,70,650,640,17,791,790
200,60,200,70,170,260,230,220,8,252,251
430,240,430,230,410,360,140,150,21,1190,1189
370,280,380,280,410,210,110,100,14,631,630
80,180,90,180,250,450,440,430,4,58,57
410,140,410,130,410,130,10,0,21,980,1080
120,190,110,190,120,20,170,180,9,396,395
30,240,30,230,20,90,160,150,23,1124,1123
360,110,360,120,360,270,160,150,3,-32,-33
60,70,60,80,250,450,570,560,4,71,70
460,220,460,230,130,280,390,380,27,1579,1578
180,110,190,110,240,110,60,50,24,1189,1188
290,420,300,420,380,410,100,90,16,709,708
360,210,360,200,410,210,50,60,14,613,612
20,100,20,90,20,90,10,0,23,1109,1209
130,470,120,470,70,470,60,50,15,645,0
70,40,80,40,250,10,210,200,11,410,409
430,330,430,320,420,410,90,100,22,1238,1237
250,440,250,450,250,450,10,0,4,15,115
160,230,160,220,160,60,170,160,7,176,175
180,360,180,370,180,390,30,20,12,586,585
290,350,290,340,100,330,210,200,14,726,725
110,110,120,110,240,110,130,120,24,1196,1195
120,20,130,20,180,360,400,390,10,470,469
160,230,160,240,160,250,20,10,25,1226,1225
210,280,200,280,130,280,80,70,27,1548,1547
470,420,480,420,210,420,260,270,29,1528,0
330,90,320,90,250,200,190,180,22,1068,1067
180,140,180,130,80,350,310,320,6,218,217
60,260,60,250,420,120,500,490,25,1443,1442
410,200,420,200,410,210,10,20,14,607,606
280,320,280,310,210,280,110,100,18,960,959
160,430,170,430,180,390,60,50,12,601,600
240,450,230,450,210,280,200,190,18,985,984
170,220,180,220,370,220,200,190,15,782,781
70,140,70,150,80,350,220,210,6,201,200
150,430,160,430,380,410,250,240,16,724,723
170,110,180,110,420,120,260,250,25,1417,1416
300,450,290,450,290,450,10,0,17,890,990
20,260,20,250,20,60,200,190,10,336,335
190,110,200,110,240,110,50,40,24,1188,1187
250,350,250,360,250,450,100,90,4,24,23
370,440,360,440,20,60,730,720,10,389,388
190,180,190,190,160,250,100,90,25,1264,1263
30,70,20,70,460,70,430,440,18,824,823
50,460,50,450,380,410,380,370,16,737,736
410,360,410,370,420,410,60,50,22,1265,1264
230,470,220,470,70,470,160,150,15,655,0
250,440,240,440,20,60,610,600,10,377,376
380,270,380,280,130,280,260,250,27,1566,1565
460,210,460,200,460,190,20,10,5,60,59
70,300,70,310,470,420,520,510,28,1479,1478
400,200,410,200,410,210,20,10,14,608,607
140,380,140,370,160,380,20,30,11,521,520
410,300,400,300,410,130,170,180,21,998,997
270,420,280,420,460,190,420,410,5,100,99
380,390,390,390,390,400,20,10,9,296,295
160,240,160,250,160,250,10,0,25,1225,1325
160,180,170,180,250,450,360,350,4,50,49
210,290,210,280,210,280,10,0,18,950,1050
270,200,270,190,180,150,140,130,5,132,131
110,110,120,110,240,110,130,120,24,1196,1195
300,100,310,100,460,70,190,180,18,790,789
170,470,160,470,70,470,100,90,15,649,0
280,50,290,50,360,270,300,290,3,-18,-19
260,280,250,280,130,280,130,120,27,1553,1552
270,290,260,290,210,280,70,60,18,956,955
280,310,280,320,270,350,50,40,29,1690,0
330,370,340,370,390,370,60,50,20,916,915
310,90,300,90,250,200,170,160,22,1066,1065
130,400,130,390,360,430,260,270,13,672,671
210,470,200,470,70,470,140,130,15,653,0
150,240,140,240,20,90,280,270,23,1136,1135
170,380,170,390,390,400,240,230,9,318,317
290,320,290,310,290,280,40,30,28,1611,1610
420,130,420,140,460,200,110,100,26,1491,1490
310,470,300,470,70,470,240,230,15,663,0
60,40,60,50,250,450,600,590,4,74,73
320,440,310,440,20,60,680,670,10,384,383
410,100,410,90,250,200,260,270,22,1077,1076
210,280,200,280,130,280,80,70,27,1548,1547
280,330,280,340,390,370,150,140,20,925,924
360,410,370,410,380,410,20,10,16,701,700
440,370,430,370,150,450,370,360,23,1306,1305
110,310,120,310,160,60,300,290,7,189,188
330,410,330,420,150,450,220,210,23,1291,1290
380,470,370,470,70,470,310,300,15,670,0
400,470,390,470,70,470,330,320,15,672,0
330,420,340,420,460,190,360,350,5,94,93
110,470,100,470,70,470,40,30,15,643,0
290,440,280,440,20,60,650,640,10,381,380
150,200,150,190,150,190,10,0,26,1307,1407
170,280,160,280,130,280,40,30,27,1544,1543
420,110,420,120,420,120,10,0,25,1392,1492
370,80,360,80,290,450,450,440,17,934,933
360,220,360,210,410,210,60,50,14,614,613
430,340,430,330,420,410,80,90,22,1239,1238
250,180,240,180,180,150,100,90,5,128,127
450,390,450,380,460,190,210,200,5,79,78
400,390,390,390,420,410,40,50,22,1261,1260
350,390,360,390,400,390,50,40,7,249,248
420,370,410,370,150,450,350,340,23,1304,1303
90,440,80,440,20,60,450,440,10,361,360
20,390,20,380,20,60,330,320,10,349,348
80,320,80,330,80,350,30,20,6,182,181
60,40,70,40,250,10,220,210,11,411,410
280,280,270,280,60,280,220,210,6,124,123
150,140,150,130,160,250,120,130,25,1240,1239
70,200,70,210,470,420,620,610,28,1489,1488
170,180,170,190,180,360,190,180,10,449,448
270,280,260,280,60,280,210,200,6,123,122
160,450,150,450,150,450,10,0,23,1270,1370
140,140,130,140,120,140,20,10,27,1401,1400
300,200,290,200,120,190,190,180,8,314,313
420,340,420,350,420,410,70,60,22,1234,1233
270,220,280,220,370,220,100,90,15,772,771
430,230,430,220,410,360,150,160,21,1189,1188
430,190,420,190,410,360,190,180,21,1185,1184
270,420,280,420,380,410,120,110,16,711,710
370,350,360,350,100,330,290,280,14,734,733
260,110,270,110,420,120,170,160,25,1408,1407
80,290,80,300,290,280,220,230,28,1635,1634
90,180,100,180,250,450,430,420,4,57,56
100,40,100,30,250,10,180,170,11,407,406
380,90,370,90,250,200,240,230,22,1073,1072
290,420,300,420,460,190,400,390,5,98,97
20,160,20,150,20,90,70,60,23,1115,1114
190,10,200,10,250,10,60,50,11,395,394
160,110,170,110,420,120,270,260,25,1418,1417
160,160,160,150,160,60,100,90,7,169,168
330,280,320,280,60,280,270,260,6,129,128
290,350,290,340,100,330,210,200,14,726,725
220,50,230,50,360,270,360,350,3,-12,-13
290,280,280,280,130,280,160,150,27,1556,1555
130,280,120,280,60,280,70,60,6,109,108
230,110,240,110,420,120,200,190,25,1411,1410
210,230,210,220,300,160,160,150,19,1045,1044
90,280,80,280,60,280,30,20,6,105,104
180,250,180,260,180,360,110,100,10,441,440
400,370,410,370,410,130,250,240,21,1010,1009
450,150,440,150,60,280,520,510,6,154,153
230,410,240,410,360,430,150,140,13,659,658
420,160,420,170,460,200,80,70,26,1488,1487
430,310,420,310,410,310,20,10,13,541,540
270,150,260,150,160,250,210,200,25,1275,1274
270,110,280,110,420,120,160,150,25,1407,1406
150,340,150,350,160,380,50,40,11,510,509
400,390,390,390,420,410,40,50,22,1261,1260
180,400,190,400,470,420,310,300,28,1458,1457
70,100,80,100,460,70,420,410,18,813,812
400,70,390,70,60,70,340,330,17,760,759
70,40,70,30,120,20,70,60,9,376,375
460,270,460,260,460,190,80,70,5,66,65
290,450,280,450,210,280,250,240,18,990,989
20,200,20,190,20,60,140,130,10,330,329
160,220,160,230,160,250,30,20,25,1227,1226
450,140,450,130,450,130,10,0,16,847,947
150,430,140,430,360,430,210,220,13,677,676
130,430,130,420,360,430,230,240,13,675,674
190,390,190,380,180,390,10,20,12,594,593
310,90,300,90,250,200,170,160,22,1066,1065
280,280,280,290,390,370,200,190,20,930,929
240,420,250,420,460,190,450,440,5,103,102
110,320,120,320,290,280,220,210,28,1629,1628
100,10,110,10,250,10,150,140,11,404,403
400,200,400,210,410,360,170,160,21,1181,1180
60,150,60,140,420,120,390,380,25,1432,1431
230,160,240,160,300,160,70,60,19,1036,1035
170,40,160,40,70,40,100,90,3,-16,-17
420,410,430,410,150,450,310,320,23,1314,1313
260,440,250,440,20,60,620,610,10,378,377
440,200,450,200,410,210,40,50,14,604,603
220,450,210,450,150,450,70,60,23,1276,1275
140,100,150,100,460,70,350,340,18,806,805
160,420,160,430,180,390,50,60,12,602,601
200,10,210,10,250,10,50,40,11,394,393
270,450,260,450,210,280,230,220,18,988,987
180,180,190,180,250,450,340,330,4,48,47
410,310,410,320,420,260,60,70,20,1100,1099
150,470,140,470,70,470,80,70,15,647,0
350,160,360,160,420,260,170,160,20,1125,1124
160,190,160,180,160,60,130,120,7,172,171
80,80,90,80,240,110,190,180,24,1202,1201
390,220,380,220,410,210,30,40,14,617,616
170,190,170,200,180,360,180,170,10,448,447
340,410,350,410,380,410,40,30,16,703,702
320,440,310,440,20,60,680,670,10,384,383
60,100,60,110,250,450,540,530,4,68,67
170,230,170,240,180,360,140,130,10,444,443
310,70,300,70,60,70,250,240,17,751,750
400,270,400,280,410,360,100,90,21,1174,1173
210,370,220,370,210,280,90,100,18,972,971
210,280,200,280,60,280,150,140,6,117,116
410,230,410,240,420,260,40,30,20,1108,1107
150,240,140,240,20,90,280,270,23,1136,1135
430,380,430,370,420,410,40,50,22,1243,1242
350,390,360,390,390,400,50,40,9,299,298
120,280,110,280,60,280,60,50,6,108,107
430,350,430,340,410,130,240,230,21,1005,1004
360,410,360,420,420,410,60,70,22,1255,1254
70,40,60,40,250,450,590,600,4,75,74
290,10,300,10,440,80,220,210,12,486,485
420,360,420,350,60,70,650,640,17,791,790
450,130,450,120,290,450,480,490,17,947,946
240,470,230,470,70,470,170,160,15,656,0
360,190,360,200,290,450,330,320,17,922,921
20,80,30,80,240,110,250,240,24,1208,1207
360,310,360,320,290,450,210,200,17,910,909
230,70,220,70,60,70,170,160,17,743,742
70,400,80,400,470,420,420,410,28,1469,1468
120,440,110,440,20,60,480,470,10,364,363
20,330,20,320,20,60,270,260,10,343,342
20,440,20,430,20,60,380,370,10,354,353
200,40,190,40,70,40,130,120,3,-13,-14
150,250,150,240,160,250,10,20,25,1251,1250
60,330,60,320,420,120,570,560,25,1450,1449
70,150,70,160,470,420,670,660,28,1494,1493
200,440,200,430,460,190,510,500,5,109,108
350,90,340,90,250,200,210,200,22,1070,1069
10,90,10,100,460,70,470,480,18,820,819
70,260,70,250,370,220,340,330,15,796,795
380,270,380,280,130,280,260,250,27,1566,1565
270,230,270,220,270,220,10,0,4,34,134
160,110,160,100,160,60,50,40,7,164,163
70,420,70,410,60,330,100,90,24,1359,1358
410,330,410,340,410,360,30,20,21,1167,1166
410,260,410,250,120,190,360,350,8,331,330
190,400,200,400,470,420,300,290,28,1457,1456
360,260,360,270,290,450,260,250,17,915,914
80,380,80,390,400,390,330,320,7,277,276
320,50,310,50,280,150,140,130,19,856,855
280,350,280,360,390,370,130,120,20,923,922
130,280,120,280,290,280,160,170,28,1641,1640
230,160,240,160,300,160,70,60,19,1036,1035
160,390,160,400,180,390,20,30,12,605,604
410,340,410,330,120,190,440,430,8,339,338
440,160,440,170,410,310,180,170,13,557,556
100,470,90,470,70,470,30,20,15,642,0
70,130,70,140,80,350,230,220,6,202,201
90,110,100,110,240,110,150,140,24,1198,1197
290,290,290,280,290,280,10,0,28,1608,1708
50,70,40,70,460,70,410,420,18,826,825
190,430,190,420,180,390,50,40,12,598,597
420,180,420,170,60,70,470,460,17,773,772
180,150,180,160,170,260,120,110,8,241,240
390,400,390,410,20,60,710,720,10,395,394
160,240,150,240,20,90,290,280,23,1137,1136
70,180,70,190,470,420,640,630,28,1491,1490
170,280,170,290,390,400,340,330,9,328,327
350,390,360,390,400,390,50,40,7,249,248
210,390,220,390,400,390,190,180,7,263,262
180,360,180,370,180,390,30,20,12,586,585
390,370,400,370,410,130,260,250,21,1011,1010
250,240,240,240,20,90,380,370,23,1146,1145
230,450,220,450,150,450,80,70,23,1277,1276
270,280,270,270,270,220,60,50,4,39,38
30,70,20,70,460,70,430,440,18,824,823
430,210,430,220,420,260,60,50,20,1112,1111
450,120,450,110,290,450,490,500,17,946,945
420,160,430,160,420,260,100,110,20,1118,1117
240,420,250,420,460,190,450,440,5,103,102
340,280,330,280,60,280,280,270,6,130,129
100,110,110,110,240,110,140,130,24,1197,1196
240,10,250,10,250,10,10,0,11,390,490
430,50,420,50,280,150,250,240,19,867,866
310,160,320,160,420,260,210,200,20,1129,1128
420,240,420,230,410,210,40,30,14,622,621
360,170,360,180,290,450,350,340,17,924,923
320,10,330,10,440,80,190,180,12,483,482
420,310,410,310,410,310,10,0,13,540,640
140,330,140,320,160,380,70,80,11,516,515
70,170,70,160,120,20,200,190,9,389,388
220,320,230,320,290,280,110,100,28,1618,1617
380,430,380,420,100,330,380,370,14,743,742
420,190,420,180,60,70,480,470,17,774,773
160,50,160,60,180,360,330,320,10,463,462
440,200,440,210,410,310,140,130,13,553,552
460,180,460,170,60,280,500,510,6,158,157
330,390,340,390,400,390,70,60,7,251,250
150,150,150,140,120,140,40,30,27,1403,1402
210,180,220,180,250,450,310,300,4,45,44
10,100,20,100,460,70,480,470,18,819,818
230,220,240,220,370,220,140,130,15,776,775
250,200,240,200,120,190,140,130,8,309,308
260,420,270,420,380,410,130,120,16,712,711
370,10,380,10,440,80,140,130,12,478,477
440,420,450,420,460,190,250,240,5,83,82
250,430,260,430,360,430,110,100,13,655,654
160,150,160,160,160,250,100,90,25,1234,1233
50,240,40,240,20,90,180,170,23,1126,1125
260,110,270,110,160,250,240,250,25,1282,1281
440,80,430,80,290,450,520,510,17,941,940
70,160,70,170,80,350,200,190,6,199,198
60,160,60,150,420,120,400,390,25,1433,1432
150,230,150,220,150,190,40,30,26,1310,1309
100,280,90,280,290,280,190,200,28,1638,1637
250,310,250,320,250,450,140,130,4,28,27
360,370,350,370,150,450,290,280,23,1298,1297
250,110,250,120,250,200,90,80,22,1058,1057
190,430,200,430,380,410,210,200,16,720,719
460,200,460,210,130,280,410,400,27,1581,1580
70,320,70,310,370,220,400,390,15,802,801
360,170,360,180,360,270,100,90,3,-38,-39
410,320,410,310,120,190,420,410,8,337,336
420,310,420,300,60,70,600,590,17,786,785
100,20,110,20,120,20,20,10,9,371,370
420,220,410,220,410,210,20,10,14,620,619
380,390,370,390,420,410,60,70,22,1259,1258
400,420,400,430,70,470,380,370,15,677,676
90,330,80,330,370,220,390,400,15,805,804
20,400,20,390,20,60,340,330,10,350,349
360,410,360,420,290,450,110,100,17,900,899
460,50,450,50,280,150,280,270,19,870,869
230,290,220,290,210,280,30,20,18,952,951
420,320,420,330,420,410,90,80,22,1236,1235
280,250,280,260,390,370,230,220,20,933,932
310,450,300,450,150,450,160,150,23,1285,1284
180,50,190,50,70,40,120,130,3,-8,-9
200,420,200,410,210,280,150,140,18,978,977
70,330,70,340,470,420,490,480,28,1476,1475
360,280,360,290,270,220,150,160,4,52,51
400,280,390,280,60,280,340,330,6,136,135
110,470,100,470,70,470,40,30,15,643,0
360,80,360,90,360,270,190,180,3,-29,-30
350,210,350,200,120,190,250,240,8,320,319
250,110,260,110,160,250,230,240,25,1283,1282
410,90,400,90,250,200,270,260,22,1076,1075
90,80,90,90,240,110,180,170,24,1201,1200
360,200,360,210,360,270,70,60,3,-41,-42
370,220,380,220,450,130,170,160,16,863,862
260,110,270,110,420,120,170,160,25,1408,1407
180,290,180,300,180,360,70,60,10,437,436
70,290,70,280,370,220,370,360,15,799,798
170,400,180,400,470,420,320,310,28,1459,1458
40,100,50,100,460,70,450,440,18,816,815
400,380,400,390,70,470,420,410,15,681,680
410,310,400,310,410,210,100,110,14,640,639
420,130,420,120,60,70,420,410,17,768,767
280,260,280,270,270,350,100,90,29,1695,1694
180,110,190,110,420,120,250,240,25,1416,1415
360,70,360,80,360,270,200,190,3,-28,-29
250,150,250,160,250,200,50,40,22,1054,1053
170,260,170,270,390,400,360,350,9,330,329
200,400,200,390,210,280,130,120,18,976,975
430,250,430,260,60,280,400,390,6,142,141
80,100,90,100,460,70,410,400,18,812,811
120,220,130,220,370,220,250,240,15,787,786
250,100,250,110,250,200,100,90,22,1059,1058
230,180,220,180,180,150,80,70,5,126,125
70,170,70,180,470,420,650,640,28,1492,1491
360,130,360,140,360,270,140,130,3,-34,-35
90,20,100,20,120,20,30,20,9,372,371
440,20,440,30,440,80,60,50,12,470,469
220,290,210,290,210,280,20,10,18,951,950
160,280,160,290,150,190,100,110,26,1322,1321
430,420,440,420,470,420,40,30,28,1431,1430
150,310,150,320,160,380,80,70,11,513,512
350,430,360,430,360,430,10,0,13,645,745
160,150,160,160,160,250,100,90,25,1234,1233
70,230,70,220,370,220,310,300,15,793,792
220,160,230,160,300,160,80,70,19,1037,1036
380,160,390,160,420,260,140,130,20,1122,1121
180,270,180,280,180,360,90,80,10,439,438
210,450,200,450,210,280,170,180,18,982,981
380,310,370,310,410,210,130,140,14,637,636
170,450,160,450,150,450,20,10,23,1271,1270
70,330,70,320,370,220,410,400,15,803,802
20,230,20,220,20,60,170,160,10,333,332
100,70,90,70,60,70,40,30,17,730,729
340,420,350,420,460,190,350,340,5,93,92
70,110,80,110,420,120,360,350,25,1427,1426
70,400,80,400,470,420,420,410,28,1469,1468
390,200,400,200,410,210,30,20,14,609,608
130,450,120,450,60,330,190,180,24,1368,1367
140,330,140,320,160,380,70,80,11,516,515
250,420,260,420,460,190,440,430,5,102,101
460,260,460,250,460,190,70,60,5,65,64
130,40,120,40,70,40,60,50,3,-20,-21
220,150,210,150,160,250,160,150,25,1270,1269
160,280,160,290,150,190,100,110,26,1322,1321
400,220,400,230,410,360,150,140,21,1179,1178
150,300,150,290,150,190,110,100,26,1317,1316
160,50,170,50,70,40,100,110,3,-6,-7
430,160,430,170,420,260,110,100,20,1117,1116
320,100,330,100,460,70,170,160,18,788,787
360,330,360,340,290,450,190,180,17,908,907
380,260,380,270,130,280,270,260,27,1567,1566
330,430,330,440,150,450,200,190,23,1289,1288
180,180,180,170,180,150,30,20,5,121,120
70,170,70,180,80,350,190,180,6,198,197
230,280,220,280,130,280,100,90,27,1550,1549
470,420,480,420,210,420,260,270,29,1528,0
390,70,380,70,60,70,330,320,17,759,758
410,220,410,210,120,190,320,310,8,327,326
300,50,290,50,280,150,120,110,19,854,853
180,170,180,160,180,150,20,10,5,120,119
100,310,110,310,160,60,310,300,7,190,189
410,240,410,250,420,260,30,20,20,1107,1106
330,410,340,410,380,410,50,40,16,704,703
280,140,280,150,280,150,10,0,19,843,943
100,40,90,40,70,40,30,20,3,-23,-24
80,280,70,280,60,280,20,10,6,104,103
410,110,420,110,420,120,20,10,25,1393,1392
420,330,420,340,420,410,80,70,22,1235,1234
160,40,150,40,70,40,90,80,3,-17,-18
240,450,230,450,460,190,480,490,5,114,113
440,10,440,20,440,80,70,60,12,471,470
150,180,150,170,160,250,80,90,25,1244,1243
160,430,170,430,380,410,240,230,16,723,722
440,100,450,100,460,70,50,40,18,776,775
290,110,300,110,420,120,140,130,25,1405,1404
360,240,360,250,360,270,30,20,3,-45,-46
180,390,180,400,360,430,220,210,13,684,683
350,410,360,410,380,410,30,20,16,702,701
400,410,410,410,420,410,20,10,22,1215,1214
210,100,220,100,460,70,280,270,18,799,798
410,190,410,180,410,130,60,50,21,985,984
440,150,430,150,60,280,510,500,6,153,152
430,180,430,190,420,260,90,80,20,1115,1114
410,200,410,190,450,130,110,100,16,857,856
430,190,440,190,460,200,40,30,26,1484,1483
280,100,280,110,280,150,50,40,19,847,846
20,110,20,100,20,60,50,40,10,321,320
290,320,290,310,290,280,40,30,28,1611,1610
400,280,400,290,410,360,90,80,21,1173,1172
440,30,440,40,440,80,50,40,12,469,468
80,20,90,20,120,20,40,30,9,373,372
460,340,460,330,460,190,150,140,5,73,72
90,280,80,280,290,280,200,210,28,1637,1636
160,10,170,10,250,10,90,80,11,398,397
180,120,180,110,80,350,330,340,6,216,215
230,180,230,190,250,450,290,280,4,43,42
180,200,180,190,120,190,70,60,8,302,301
400,110,410,110,420,120,30,20,25,1394,1393
360,160,370,160,420,260,160,150,20,1124,1123
450,140,450,130,450,130,10,0,16,847,947
180,390,190,390,390,400,220,210,9,316,315
360,210,360,220,290,450,310,300,17,920,919
20,240,20,230,20,60,180,170,10,334,333
410,370,420,370,410,130,240,250,21,1009,1008
230,390,240,390,400,390,170,160,7,261,260
160,300,160,310,150,190,120,130,26,1320,1319
40,70,30,70,460,70,420,430,18,825,824
230,200,220,200,120,190,120,110,8,307,306
170,280,160,280,60,280,110,100,6,113,112
60,320,60,310,420,120,560,550,25,1449,1448
210,70,200,70,60,70,150,140,17,741,740
330,200,320,200,120,190,220,210,8,317,316
160,40,160,50,180,360,340,330,10,464,463
180,260,180,270,180,360,100,90,10,440,439
420,380,420,370,60,70,670,660,17,793,792
360,220,370,220,370,220,10,0,15,763,863
180,170,180,160,180,150,20,10,5,120,119
180,170,180,180,170,260,100,90,8,239,238
420,190,410,190,410,360,180,170,21,1184,1183
240,110,250,110,160,250,220,230,25,1284,1283
160,440,150,440,20,60,520,510,10,368,367
390,390,390,400,390,400,10,0,9,295,395
360,120,360,130,360,270,150,140,3,-33,-34
150,240,150,230,150,190,50,40,26,1311,1310
360,10,370,10,440,80,150,140,12,479,478
250,370,250,380,250,450,80,70,4,22,21
70,120,70,110,120,20,150,140,9,384,383
190,410,190,400,180,390,30,20,12,596,595
170,360,170,370,390,400,260,250,9,320,319
420,420,430,420,420,410,10,20,22,1248,1247
380,350,370,350,100,330,300,290,14,735,734
390,90,380,90,250,200,250,240,22,1074,1073
70,180,70,190,80,350,180,170,6,197,196
140,40,130,40,70,40,70,60,3,-19,-20
360,410,370,410,380,410,20,10,16,701,700
60,250,60,240,420,120,490,480,25,1442,1441
350,200,340,200,120,190,240,230,8,319,318
160,110,160,120,180,360,270,260,10,457,456
180,100,180,110,170,260,170,160,8,246,245
280,290,280,300,390,370,190,180,20,929,928
400,330,400,340,70,470,470,460,15,686,685
300,90,290,90,250,200,160,150,22,1065,1064
360,420,370,420,460,190,330,320,5,91,90
190,190,190,200,160,250,90,80,25,1263,1262
280,370,280,360,210,280,160,150,18,965,964
70,410,70,400,60,330,90,80,24,1358,1357
430,420,430,410,420,410,20,10,22,1247,1246
420,370,430,370,410,130,250,260,21,1008,1007
310,100,320,100,460,70,180,170,18,789,788
100,240,90,240,20,90,230,220,23,1131,1130
350,350,340,350,100,330,270,260,14,732,731
290,470,280,470,70,470,220,210,15,661,0
360,210,350,210,120,190,260,250,8,321,320
150,200,150,190,160,250,60,70,25,1246,1245
280,310,280,320,390,370,170,160,20,927,926
280,280,270,280,130,280,150,140,27,1555,1554
140,280,130,280,130,280,10,0,27,1541,1641
410,340,410,350,410,360,20,10,21,1166,1165
360,90,360,100,360,270,180,170,3,-30,-31
170,190,160,190,120,190,50,40,8,300,299
430,330,430,320,410,130,220,210,21,1003,1002
350,420,360,420,460,190,340,330,5,92,91
150,430,140,430,360,430,210,220,13,677,676
430,340,430,330,410,130,230,220,21,1004,1003
80,350,80,360,400,390,360,350,7,280,279
280,470,270,470,70,470,210,200,15,660,0
420,200,430,200,410,210,20,30,14,606,605
230,240,230,250,250,450,230,220,4,37,36
190,400,200,400,470,420,300,290,28,1457,1456
40,70,30,70,460,70,420,430,18,825,824
70,80,80,80,240,110,200,190,24,1203,1202
30,210,30,200,20,90,130,120,23,1121,1120
70,330,70,340,470,420,490,480,28,1476,1475
280,300,280,310,390,370,180,170,20,928,927
230,230,230,240,250,450,240,230,4,38,37
230,150,220,150,160,250,170,160,25,1271,1270
440,100,450,100,460,70,50,40,18,776,775
360,100,360,110,360,270,170,160,3,-31,-32
200,410,200,400,210,280,140,130,18,977,976
70,150,70,160,80,350,210,200,6,200,199
150,390,160,390,400,390,250,240,7,269,268
170,270,170,280,390,400,350,340,9,329,328
300,50,310,50,360,270,280,270,3,-20,-21
250,260,250,270,250,450,190,180,4,33,32
360,260,360,270,290,450,260,250,17,915,914
330,280,320,280,130,280,200,190,27,1560,1559
320,50,330,50,360,270,260,250,3,-22,-23
200,380,200,370,210,280,110,100,18,974,973
380,110,390,110,420,120,50,40,25,1396,1395
20,170,20,160,20,60,110,100,10,327,326
100,100,110,100,460,70,390,380,18,810,809
150,390,160,390,400,390,250,240,7,269,268
360,390,370,390,390,400,40,30,9,298,297
50,240,40,240,20,90,180,170,23,1126,1125
300,370,310,370,390,370,90,80,20,919,918
240,260,250,260,250,450,200,190,4,34,33
90,280,80,280,60,280,30,20,6,105,104
420,390,420,380,60,70,680,670,17,794,793
380,420,390,420,460,190,310,300,5,89,88
70,60,70,50,120,20,90,80,9,378,377
360,430,360,440,290,450,90,80,17,898,897
300,430,310,430,360,430,60,50,13,650,649
280,440,270,440,20,60,640,630,10,380,379
380,410,380,400,100,330,360,350,14,741,740
130,180,140,180,250,450,390,380,4,53,52
70,380,70,390,470,420,440,430,28,1471,1470
430,190,430,200,60,280,460,450,6,148,147
210,50,220,50,360,270,370,360,3,-11,-12
160,200,160,210,160,250,50,40,25,1229,1228
300,100,310,100,460,70,190,180,18,790,789
50,310,60,310,160,60,360,350,7,195,194
70,90,70,80,120,20,120,110,9,381,380
340,390,350,390,390,400,60,50,9,300,299
410,190,400,190,410,360,170,180,21,1183,1182
240,280,230,280,130,280,110,100,27,1551,1550
100,330,90,330,370,220,380,390,15,806,805
410,230,410,220,120,190,330,320,8,328,327
290,450,280,450,210,280,250,240,18,990,989
120,50,130,50,360,270,460,450,3,-2,-3
290,50,300,50,360,270,290,280,3,-19,-20
460,160,460,150,60,280,520,530,6,156,155
360,420,360,430,290,450,100,90,17,899,898
30,440,20,440,20,60,390,380,10,355,354
180,400,180,410,360,430,210,200,13,683,682
280,90,270,90,250,200,140,130,22,1063,1062
340,350,330,350,100,330,260,250,14,731,730
60,360,60,350,60,330,30,20,24,1352,1351
260,340,250,340,100,330,170,160,14,722,721
330,450,320,450,290,450,40,30,17,893,892
220,280,210,280,130,280,90,80,27,1549,1548
90,440,100,440,380,410,320,310,16,731,730
190,410,190,400,180,390,30,20,12,596,595
240,180,230,180,180,150,90,80,5,127,126
230,340,220,340,100,330,140,130,14,719,718
100,280,90,280,290,280,190,200,28,1638,1637
100,220,110,220,370,220,270,260,15,789,788
290,160,300,160,300,160,10,0,19,1030,1130
320,110,330,110,420,120,110,100,25,1402,1401
80,140,70,140,470,420,670,680,28,1496,1495
320,50,330,50,360,270,260,250,3,-22,-23
400,280,400,290,70,470,520,510,15,691,690
360,390,370,390,400,390,40,30,7,248,247
120,40,110,40,70,40,50,40,3,-21,-22
140,340,140,330,160,380,60,70,11,517,516
280,220,280,230,390,370,260,250,20,936,935
160,240,160,230,160,60,180,170,7,177,176
200,50,210,50,70,40,140,150,3,-10,-11
120,390,130,390,400,390,280,270,7,272,271
190,50,200,50,360,270,390,380,3,-9,-10
100,40,90,40,70,40,30,20,3,-23,-24
290,300,280,300,270,220,100,90,4,43,42
430,170,430,180,420,260,100,90,20,1116,1115
160,420,160,430,180,390,50,60,12,602,601
280,450,270,450,150,450,130,120,23,1282,1281
80,400,90,400,470,420,410,400,28,1468,1467
70,190,70,200,470,420,630,620,28,1490,1489
440,220,440,230,410,310,120,110,13,551,550
280,190,280,200,390,370,290,280,20,939,938
160,400,160,410,180,390,30,40,12,604,603
310,10,320,10,440,80,200,190,12,484,483
60,270,60,260,420,120,510,500,25,1444,1443
460,210,460,220,130,280,400,390,27,1580,1579
250,280,240,280,60,280,190,180,6,121,120
70,50,70,40,120,20,80,70,9,377,376
200,100,190,100,170,260,190,180,8,248,247
250,390,260,390,390,400,150,140,9,309,308
60,310,60,300,420,120,550,540,25,1448,1447
130,450,120,450,60,330,190,180,24,1368,1367
90,310,100,310,160,60,320,310,7,191,190
430,190,430,200,420,260,80,70,20,1114,1113
420,80,420,70,60,70,370,360,17,763,762
400,110,410,110,420,120,30,20,25,1394,1393
180,350,180,360,180,360,10,0,10,431,531
80,330,80,340,80,350,20,10,6,181,180
420,250,420,240,60,70,540,530,17,780,779
170,210,170,220,180,360,160,150,10,446,445
160,110,150,110,80,350,320,310,6,213,212
230,190,230,200,250,450,280,270,4,42,41
70,110,70,120,80,350,250,240,6,204,203
360,300,350,300,270,220,170,160,4,50,49
360,370,360,380,290,450,150,140,17,904,903
160,190,150,190,120,190,40,30,8,299,298
150,150,150,140,160,250,110,120,25,1241,1240
190,410,200,410,360,430,190,180,13,663,662
60,60,60,70,250,450,580,570,4,72,71
240,150,230,150,160,250,180,170,25,1272,1271
320,280,310,280,60,280,260,250,6,128,127
270,70,260,70,60,70,210,200,17,747,746
190,40,180,40,70,40,120,110,3,-14,-15
70,150,70,140,120,20,180,170,9,387,386
440,240,440,250,410,310,100,90,13,549,548
420,380,420,370,60,70,670,660,17,793,792
120,70,110,70,60,70,60,50,17,732,731
160,40,150,40,70,40,90,80,3,-17,-18
180,370,180,380,160,380,30,20,11,530,529
340,280,330,280,130,280,210,200,27,1561,1560
270,300,270,290,270,220,80,70,4,41,40
230,450,220,450,210,280,190,180,18,984,983
240,280,230,280,130,280,110,100,27,1551,1550
130,410,130,400,360,430,250,260,13,673,672
460,100,460,90,460,70,30,20,18,774,773
230,180,220,180,180,150,80,70,5,126,125
280,210,280,220,270,350,150,140,29,1700,1699
430,180,430,190,60,280,470,460,6,149,148
340,350,330,350,100,330,260,250,14,731,730
330,220,340,220,370,220,40,30,15,766,765
20,440,20,430,20,60,380,370,10,354,353
310,50,320,50,360,270,270,260,3,-21,-22
170,220,170,230,180,360,150,140,10,445,444
420,320,420,310,60,70,610,600,17,787,786
180,280,180,290,180,360,80,70,10,438,437
340,370,330,370,150,450,270,260,23,1296,1295
20,410,20,400,20,60,350,340,10,351,350
360,400,360,410,290,450,120,110,17,901,900
20,130,20,120,20,90,40,30,23,1112,1111
450,390,450,380,150,450,360,370,23,1309,1308
210,220,220,220,370,220,160,150,15,778,777
390,200,400,200,410,210,30,20,14,609,608
420,250,410,250,130,280,320,310,27,1572,1571
360,270,360,280,290,450,250,240,17,914,913
180,280,170,280,130,280,50,40,27,1545,1544
190,100,180,100,170,260,180,170,8,247,246
390,10,400,10,440,80,120,110,12,476,475
420,210,420,200,60,70,500,490,17,776,775
170,330,160,330,100,330,70,60,14,712,711
160,70,150,70,60,70,100,90,17,736,735
180,410,180,420,360,430,200,190,13,682,681
160,270,160,260,160,60,210,200,7,180,179
60,350,60,340,60,330,20,10,24,1351,1350
280,110,280,120,160,250,260,250,25,1280,1279
330,100,340,100,460,70,160,150,18,787,786
40,240,30,240,20,90,170,160,23,1125,1124
240,240,230,240,20,90,370,360,23,1145,1144
460,80,460,70,460,70,10,0,18,772,872
70,190,70,200,80,350,170,160,6,196,195
400,10,410,10,440,80,110,100,12,475,474
230,240,220,240,20,90,360,350,23,1144,1143
140,470,130,470,70,470,70,60,15,646,0
160,90,160,100,180,360,290,280,10,459,458
280,310,280,320,270,350,50,40,29,1690,0
410,280,420,280,410,210,70,80,14,627,626
180,200,180,210,170,260,70,60,8,236,235
280,50,290,50,360,270,300,290,3,-18,-19
400,260,400,270,410,360,110,100,21,1175,1174
410,420,420,420,420,410,20,10,22,1249,1248
420,160,420,150,60,70,450,440,17,771,770
150,180,150,170,120,140,70,60,27,1406,1405
460,320,460,310,460,190,130,120,5,71,70
20,380,20,370,20,60,320,310,10,348,347
20,140,20,130,20,90,50,40,23,1113,1112
420,150,430,150,450,130,50,40,16,851,850
450,80,440,80,290,450,530,520,17,942,941
300,390,310,390,390,400,100,90,9,304,303
180,280,180,290,180,360,80,70,10,438,437
60,140,60,150,250,450,500,490,4,64,63
310,100,320,100,460,70,180,170,18,789,788
400,200,400,210,410,360,170,160,21,1181,1180
150,330,140,330,100,330,50,40,14,710,709
280,90,280,100,280,150,60,50,19,848,847
110,180,120,180,250,450,410,400,4,55,54
420,230,420,220,60,70,520,510,17,778,777
150,440,140,440,20,60,510,500,10,367,366
240,390,250,390,400,390,160,150,7,260,259
160,290,160,280,160,60,230,220,7,182,181
30,300,30,310,160,60,370,380,7,198,197
210,180,210,170,300,160,110,100,19,1040,1039
280,360,280,350,210,280,150,140,18,964,963
120,100,130,100,460,70,370,360,18,808,807
50,440,60,440,380,410,360,350,16,735,734
190,10,200,10,250,10,60,50,11,395,394
210,170,210,160,300,160,100,90,19,1039,1038
300,420,300,410,380,410,90,80,16,708,707
20,140,20,130,20,60,80,70,10,324,323
180,430,170,430,360,430,180,190,13,680,679
40,240,30,240,20,90,170,160,23,1125,1124
60,70,50,70,460,70,400,410,18,827,826
160,100,170,100,460,70,330,320,18,804,803
420,360,420,370,420,410,50,40,22,1232,1231
360,310,360,320,290,450,210,200,17,910,909
150,250,150,240,150,190,60,50,26,1312,1311
260,160,270,160,300,160,40,30,19,1033,1032
420,310,420,300,60,70,600,590,17,786,785
160,230,160,220,160,60,170,160,7,176,175
110,330,100,330,100,330,10,0,14,706,806
70,70,70,60,120,20,100,90,9,379,378
290,410,300,410,470,420,190,180,28,1446,1445
270,90,260,90,250,200,130,120,22,1062,1061
70,230,70,240,80,350,130,120,6,192,191
140,190,130,190,120,190,20,10,8,297,296
150,50,160,50,70,40,90,100,3,-5,-6
80,320,80,330,80,350,30,20,6,182,181
140,440,130,440,20,60,500,490,10,366,365
170,250,170,260,170,260,10,0,8,230,330
100,190,90,190,120,20,190,200,9,394,393
230,440,220,440,20,60,590,580,10,375,374
370,390,360,390,420,410,70,80,22,1258,1257
210,180,200,180,180,150,60,50,5,124,123
170,440,160,440,20,60,530,520,10,369,368
80,330,70,330,370,220,400,410,15,804,803
20,310,20,300,20,60,250,240,10,341,340
360,280,360,290,290,450,240,230,17,913,912
340,220,350,220,370,220,30,20,15,765,764
70,380,70,390,470,420,440,430,28,1471,1470
160,120,160,110,160,60,60,50,7,165,164
90,40,80,40,70,40,20,10,3,-24,-25
280,390,290,390,400,390,120,110,7,256,255
100,450,90,450,60,330,160,150,24,1365,1364
320,300,310,300,270,220,130,120,4,46,45
320,410,330,410,470,420,160,150,28,1443,1442
330,390,330,400,150,450,240,230,23,1293,1292
340,450,330,450,290,450,50,40,17,894,893
380,280,370,280,130,280,250,240,27,1565,1564
90,20,100,20,120,20,30,20,9,372,371
30,80,40,80,240,110,240,230,24,1207,1206
150,370,160,370,160,380,20,10,11,507,506
180,390,190,390,360,430,220,210,13,666,665
150,400,140,400,160,380,30,40,11,524,523
290,50,300,50,360,270,290,280,3,-19,-20
70,430,70,420,60,330,110,100,24,1360,1359
320,450,310,450,150,450,170,160,23,1286,1285
60,130,60,120,420,120,370,360,25,1430,1429
390,210,380,210,120,190,290,280,8,324,323
440,210,430,210,410,210,30,20,14,601,600
170,140,170,150,180,360,230,220,10,453,452
160,60,160,50,170,260,210,220,8,260,259
280,110,280,120,280,150,40,30,19,846,845
270,260,270,250,270,220,40,30,4,37,36
280,260,280,270,390,370,220,210,20,932,931
200,430,210,430,380,410,200,190,16,719,718
300,350,290,350,100,330,220,210,14,727,726
180,40,170,40,70,40,110,100,3,-15,-16
400,270,400,280,70,470,530,520,15,692,691
230,400,240,400,470,420,260,250,28,1453,1452
420,190,430,190,460,200,50,40,26,1485,1484
20,50,20,40,250,10,270,260,11,416,415
260,370,270,370,210,280,140,150,18,967,966
360,90,360,100,290,450,430,420,17,932,931
220,180,230,180,250,450,300,290,4,44,43
410,270,410,280,420,260,20,30,20,1104,1103
280,470,270,470,70,470,210,200,15,660,0
400,400,400,410,70,470,400,390,15,679,678
20,190,20,180,20,60,130,120,10,329,328
150,100,160,100,460,70,340,330,18,805,804
400,470,390,470,70,470,330,320,15,672,0
20,80,20,70,20,60,20,10,10,318,317
340,370,330,370,150,450,270,260,23,1296,1295
430,370,430,360,410,130,260,250,21,1007,1006
150,120,160,120,160,250,140,130,25,1238,1237
420,210,410,210,410,210,10,0,14,599,699
150,190,150,180,160,250,70,80,25,1245,1244
110,310,120,310,160,60,300,290,7,189,188
430,190,440,190,460,200,40,30,26,1484,1483
340,280,330,280,60,280,280,270,6,130,129
380,50,370,50,280,150,200,190,19,862,861
450,210,440,210,410,210,40,30,14,602,601
70,230,70,240,470,420,590,580,28,1486,1485
410,140,410,130,410,130,10,0,21,980,1080
60,150,60,140,420,120,390,380,25,1432,1431
390,280,380,280,60,280,330,320,6,135,134
410,420,420,420,420,410,20,10,22,1249,1248
70,120,70,110,120,20,150,140,9,384,383
210,450,200,450,460,190,510,520,5,111,110
40,310,50,310,160,60,370,360,7,196,195
180,120,180,130,170,260,150,140,8,244,243
400,280,410,280,410,210,80,70,14,628,627
140,400,150,400,470,420,350,340,28,1462,1461
210,260,210,250,300,160,190,180,19,1048,1047
360,50,360,60,360,270,220,210,3,-26,-27
150,310,150,300,150,190,120,110,26,1318,1317
200,180,210,180,250,450,320,310,4,46,45
430,250,430,240,410,360,130,140,21,1191,1190
330,160,340,160,420,260,190,180,20,1127,1126
450,410,450,400,460,190,230,220,5,81,80
150,260,150,250,160,250,20,10,25,1252,1251
90,100,100,100,460,70,400,390,18,811,810
120,110,130,110,240,110,120,110,24,1195,1194
20,210,20,200,20,60,150,140,10,331,330
320,200,310,200,120,190,210,200,8,316,315
360,190,360,200,360,270,80,70,3,-40,-41
330,400,330,410,150,450,230,220,23,1292,1291
180,160,180,150,180,150,10,0,5,119,219
20,150,20,140,20,90,60,50,23,1114,1113
170,250,170,260,170,260,10,0,8,230,330
410,150,420,150,450,130,60,50,16,852,851
160,130,160,120,160,60,70,60,7,166,165
400,430,400,440,70,470,370,360,15,676,675
420,390,420,380,60,70,680,670,17,794,793
280,360,280,350,210,280,150,140,18,964,963
290,300,290,290,290,280,20,10,28,1609,1608
290,390,300,390,400,390,110,100,7,255,254
210,150,200,150,160,250,150,140,25,1269,1268
160,250,160,240,160,60,190,180,7,178,177
200,90,200,100,170,260,200,190,8,249,248
250,240,240,240,20,90,380,370,23,1146,1145
30,440,20,440,20,60,390,380,10,355,354
250,430,260,430,360,430,110,100,13,655,654
170,70,160,70,60,70,110,100,17,737,736
360,100,370,100,460,70,130,120,18,784,783
280,130,280,140,280,150,20,10,19,844,843
70,140,70,130,120,20,170,160,9,386,385
290,280,280,280,60,280,230,220,6,125,124
420,80,420,70,60,70,370,360,17,763,762
160,160,160,170,160,250,90,80,25,1233,1232
370,280,360,280,130,280,240,230,27,1564,1563
370,370,360,370,150,450,300,290,23,1299,1298
360,340,360,350,290,450,180,170,17,907,906
160,260,150,260,160,250,10,20,25,1253,1252
100,30,100,20,250,10,170,160,11,406,405
270,390,280,390,400,390,130,120,7,257,256
20,70,20,60,20,60,10,0,10,317,417
160,300,160,290,160,60,240,230,7,183,182
240,110,250,110,420,120,190,180,25,1410,1409
410,160,410,150,450,130,70,60,16,853,852
90,400,100,400,470,420,400,390,28,1467,1466
20,150,20,140,20,60,90,80,10,325,324
420,220,420,210,60,70,510,500,17,777,776
300,390,310,390,400,390,100,90,7,254,253
270,180,260,180,180,150,120,110,5,130,129
360,190,360,200,290,450,330,320,17,922,921
160,120,160,130,160,250,130,120,25,1237,1236
200,280,190,280,130,280,70,60,27,1547,1546
190,200,180,200,120,190,80,70,8,303,302
280,320,280,310,210,280,110,100,18,960,959
270,50,280,50,360,270,310,300,3,-17,-18
400,420,410,420,460,190,290,280,5,87,86
150,130,150,120,160,250,130,140,25,1239,1238
180,400,170,400,160,380,40,30,11,527,526
120,110,110,110,80,350,280,270,6,209,208
440,70,440,80,440,80,10,0,12,465,565
440,80,440,90,410,310,260,250,13,565,564
320,280,310,280,130,280,190,180,27,1559,1558
190,450,180,450,150,450,40,30,23,1273,1272
290,270,290,260,270,350,100,110,29,1707,1706
330,350,320,350,100,330,250,240,14,730,729
460,250,450,250,130,280,360,350,27,1576,1575
400,190,400,200,410,360,180,170,21,1182,1181
400,270,400,280,410,360,100,90,21,1174,1173
60,110,60,120,250,450,530,520,4,67,66
150,220,160,220,370,220,220,210,15,784,783
420,140,420,150,460,200,100,90,26,1490,1489
240,420,250,420,380,410,150,140,16,714,713
210,450,200,450,460,190,510,520,5,111,110
260,320,270,320,290,280,70,60,28,1614,1613
180,320,180,330,180,360,40,30,10,434,433
160,80,160,90,180,360,300,290,10,460,459
140,220,150,220,370,220,230,220,15,785,784
110,240,100,240,20,90,240,230,23,1132,1131
110,190,100,190,120,20,180,190,9,395,394
360,240,360,250,290,450,280,270,17,917,916
430,410,440,410,150,450,320,330,23,1313,1312
20,200,20,190,20,60,140,130,10,330,329
30,310,40,310,160,60,380,370,7,197,196
380,370,390,370,390,370,10,0,20,911,1011
160,210,160,220,160,250,40,30,25,1228,1227
360,180,360,190,290,450,340,330,17,923,922
70,340,70,350,470,420,480,470,28,1475,1474
60,370,60,360,60,330,40,30,24,1353,1352
290,260,290,250,270,350,110,120,29,1706,1705
180,170,180,180,170,260,100,90,8,239,238
440,230,440,240,410,310,110,100,13,550,549
420,280,420,270,60,70,570,560,17,783,782
360,200,360,210,290,450,320,310,17,921,920
400,460,400,470,70,470,340,330,15,673,672
350,280,340,280,60,280,290,280,6,131,130
150,350,150,360,160,380,40,30,11,509,508
160,430,150,430,360,430,200,210,13,678,677
140,340,140,330,160,380,60,70,11,517,516
270,390,280,390,390,400,130,120,9,307,306
160,370,160,380,160,380,10,0,11,506,606
420,240,420,230,410,210,40,30,14,622,621
420,230,420,220,410,210,30,20,14,621,620
160,20,160,30,180,360,360,350,10,466,465
180,440,170,440,20,60,540,530,10,370,369
280,50,280,60,280,150,100,90,19,852,851
440,420,450,420,470,420,30,20,28,1430,1429
450,100,460,100,460,70,40,30,18,775,774
110,400,120,400,470,420,380,370,28,1465,1464
150,310,160,310,160,60,260,250,7,185,184
230,290,220,290,210,280,30,20,18,952,951
210,210,210,200,300,160,140,130,19,1043,1042
280,340,280,350,390,370,140,130,20,924,923
260,470,250,470,70,470,190,180,15,658,0
280,260,280,270,390,370,220,210,20,932,931
80,270,80,280,80,350,80,70,6,187,186
360,70,350,70,60,70,300,290,17,756,755
180,200,180,210,170,260,70,60,8,236,235
380,420,390,420,460,190,310,300,5,89,88
70,120,70,130,80,350,240,230,6,203,202
430,150,440,150,450,130,40,30,16,850,849
280,270,280,280,390,370,210,200,20,931,930
420,240,420,230,60,70,530,520,17,779,778
420,330,420,340,420,410,80,70,22,1235,1234
150,360,150,370,160,380,30,20,11,508,507
330,370,330,380,150,450,260,250,23,1295,1294
420,110,420,100,60,70,400,390,17,766,765
320,390,330,390,390,400,80,70,9,302,301
460,50,450,50,280,150,280,270,19,870,869
150,180,150,170,160,250,80,90,25,1244,1243
70,390,70,400,470,420,430,420,28,1470,1469
440,120,440,130,410,310,220,210,13,561,560
130,410,130,400,360,430,250,260,13,673,672
440,40,440,50,440,80,40,30,12,468,467
350,110,360,110,420,120,80,70,25,1399,1398
140,110,150,110,240,110,100,90,24,1193,1192
280,160,280,170,390,370,320,310,20,942,941
110,330,100,330,100,330,10,0,14,706,806
360,70,360,80,360,270,200,190,3,-28,-29
300,420,310,420,460,190,390,380,5,97,96
390,470,380,470,70,470,320,310,15,671,0
360,280,370,280,410,210,120,110,14,632,631
160,320,170,320,290,280,170,160,28,1624,1623
430,200,430,190,410,360,180,190,21,1186,1185
170,390,180,390,360,430,230,220,13,667,666
270,100,280,100,460,70,220,210,18,793,792
340,70,330,70,60,70,280,270,17,754,753
320,410,330,410,380,410,60,50,16,705,704
70,240,70,230,370,220,320,310,15,794,793
360,290,360,300,270,220,160,170,4,51,50
430,420,440,420,460,190,260,250,5,84,83
160,400,160,410,180,390,30,40,12,604,603
260,390,270,390,390,400,140,130,9,308,307
400,290,400,280,410,130,170,160,21,996,995
280,220,280,230,270,350,140,130,29,1699,1698
250,180,250,190,250,200,20,10,22,1051,1050
230,150,220,150,160,250,170,160,25,1271,1270
360,360,360,370,290,450,160,150,17,905,904
150,170,150,160,120,140,60,50,27,1405,1404
390,420,390,430,20,60,730,740,10,393,392
420,340,420,350,420,410,70,60,22,1234,1233
430,360,430,350,410,130,250,240,21,1006,1005
420,350,420,340,60,70,640,630,17,790,789
270,340,260,340,100,330,180,170,14,723,722
130,190,120,190,120,190,10,0,8,296,396
200,50,200,60,170,260,240,230,8,253,252
60,90,60,100,250,450,550,540,4,69,68
170,130,170,140,180,360,240,230,10,454,453
390,370,380,370,150,450,320,310,23,1301,1300
150,370,160,370,160,380,20,10,11,507,506
420,350,420,360,420,410,60,50,22,1233,1232
380,100,390,100,460,70,110,100,18,782,781
360,210,360,220,360,270,60,50,3,-42,-43
190,230,190,240,160,250,50,40,25,1259,1258
440,250,430,250,130,280,340,330,27,1574,1573
300,220,310,220,370,220,70,60,15,769,768
410,180,410,170,450,130,90,80,16,855,854
410,320,420,320,420,260,70,60,20,1099,1098
440,80,430,80,290,450,520,510,17,941,940
410,110,420,110,420,120,20,10,25,1393,1392
270,260,270,250,270,220,40,30,4,37,36
30,210,30,200,20,90,130,120,23,1121,1120
120,240,110,240,20,90,250,240,23,1133,1132
170,390,180,390,400,390,230,220,7,267,266
20,350,20,340,20,60,290,280,10,345,344
200,430,200,420,210,280,160,150,18,979,978
280,330,280,320,210,280,120,110,18,961,960
80,240,80,250,80,350,110,100,6,190,189
70,370,70,380,470,420,450,440,28,1472,1471
280,300,280,290,210,280,90,80,18,958,957
370,420,380,420,460,190,320,310,5,90,89
430,320,430,310,410,130,210,200,21,1002,1001
180,110,170,110,80,350,340,330,6,215,214
150,190,150,180,160,250,70,80,25,1245,1244
310,50,300,50,280,150,130,120,19,855,854
250,430,250,440,250,450,20,10,4,16,15
290,50,280,50,280,150,110,100,19,853,852
390,210,380,210,120,190,290,280,8,324,323
430,420,440,420,470,420,40,30,28,1431,1430
180,260,180,270,180,360,100,90,10,440,439
40,100,50,100,460,70,450,440,18,816,815
240,260,250,260,250,450,200,190,4,34,33
430,360,430,350,420,410,60,70,22,1241,1240
410,260,410,250,120,190,360,350,8,331,330
150,450,140,450,60,330,210,200,24,1370,1369
450,200,450,210,410,210,50,40,14,603,602
60,440,50,440,20,60,420,410,10,358,357
420,100,430,100,460,70,70,60,18,778,777
80,310,90,310,160,60,330,320,7,192,191
100,320,110,320,290,280,230,220,28,1630,1629
200,430,200,420,460,190,500,490,5,108,107
180,430,190,430,380,410,220,210,16,721,720
190,280,180,280,130,280,60,50,27,1546,1545
430,350,430,340,410,130,240,230,21,1005,1004
360,180,360,190,360,270,90,80,3,-39,-40
20,120,20,110,20,60,60,50,10,322,321
110,100,120,100,460,70,380,370,18,809,808
390,110,400,110,420,120,40,30,25,1395,1394
260,90,250,90,250,200,120,110,22,1061,1060
170,200,170,210,180,360,170,160,10,447,446
210,200,200,200,120,190,100,90,8,305,304
80,240,70,240,20,90,210,200,23,1129,1128
410,260,410,270,420,260,10,20,20,1105,1104
160,380,160,390,180,390,30,20,12,606,605
200,90,200,100,170,260,200,190,8,249,248
270,320,280,320,290,280,60,50,28,1613,1612
150,170,150,160,120,140,60,50,27,1405,1404
70,220,70,230,80,350,140,130,6,193,192
280,270,280,280,270,350,90,80,29,1694,1693
340,90,330,90,250,200,200,190,22,1069,1068
160,240,160,250,160,250,10,0,25,1225,1325
400,350,400,360,70,470,450,440,15,684,683
320,430,330,430,360,430,40,30,13,648,647
10,80,10,90,460,70,460,470,18,821,820
410,200,410,190,450,130,110,100,16,857,856
400,220,400,230,70,470,580,570,15,697,696
250,320,250,330,250,450,130,120,4,27,26
290,220,290,210,270,350,150,160,29,1702,1701
410,100,420,100,460,70,80,70,18,779,778
380,410,380,400,100,330,360,350,14,741,740
280,130,280,140,160,250,240,230,25,1278,1277
430,10,440,10,440,80,80,70,12,472,471
80,360,80,370,400,390,350,340,7,279,278
70,130,70,120,120,20,160,150,9,385,384
300,450,290,450,290,450,10,0,17,890,990
360,280,350,280,60,280,300,290,6,132,131
130,390,140,390,360,430,270,260,13,671,670
210,280,210,270,300,160,210,200,19,1050,1049
250,390,260,390,400,390,150,140,7,259,258
90,140,80,140,470,420,660,670,28,1497,1496
20,330,20,320,20,60,270,260,10,343,342
280,370,290,370,390,370,110,100,20,921,920
190,360,190,350,180,390,40,50,12,591,590
410,200,420,200,410,210,10,20,14,607,606
350,100,360,100,460,70,140,130,18,785,784
330,100,340,100,460,70,160,150,18,787,786
170,390,180,390,400,390,230,220,7,267,266
120,470,110,470,70,470,50,40,15,644,0
280,100,280,110,280,150,50,40,19,847,846
140,400,140,390,160,380,40,30,11,523,522
400,410,410,410,60,70,680,690,17,798,797
80,190,70,190,120,20,210,220,9,392,391
70,210,70,220,470,420,610,600,28,1488,1487
360,270,360,280,270,220,140,150,4,53,52
300,450,290,450,150,450,150,140,23,1284,1283
250,440,250,450,250,450,10,0,4,15,115
220,10,230,10,250,10,30,20,11,392,391
60,280,60,270,420,120,520,510,25,1445,1444
170,240,160,240,20,90,300,290,23,1138,1137
420,50,410,50,280,150,240,230,19,866,865
140,70,130,70,60,70,80,70,17,734,733
240,420,240,430,360,430,130,120,13,657,656
160,130,160,140,160,250,120,110,25,1236,1235
90,220,100,220,370,220,280,270,15,790,789
190,260,180,260,160,250,40,30,25,1256,1255
440,100,440,110,410,310,240,230,13,563,562
190,160,190,170,160,250,120,110,25,1266,1265
400,390,410,390,120,190,480,490,8,345,344
160,220,160,210,160,60,160,150,7,175,174
440,150,430,150,60,280,510,500,6,153,152
30,190,20,190,20,90,110,100,23,1119,1118
150,240,150,230,150,190,50,40,26,1311,1310
420,220,410,220,420,260,40,50,20,1110,1109
420,180,420,190,460,200,60,50,26,1486,1485
420,280,420,270,60,70,570,560,17,783,782
220,240,210,240,20,90,350,340,23,1143,1142
80,70,70,70,60,70,20,10,17,728,727
330,440,330,450,150,450,190,180,23,1288,1287
160,180,160,170,160,60,120,110,7,171,170
160,140,160,150,160,250,110,100,25,1235,1234
320,90,310,90,250,200,180,170,22,1067,1066
60,50,60,60,250,450,590,580,4,73,72
180,220,190,220,370,220,190,180,15,781,780
180,260,170,260,160,250,30,20,25,1255,1254
310,410,320,410,380,410,70,60,16,706,705
400,260,400,250,410,130,140,130,21,993,992
190,200,180,200,120,190,80,70,8,303,302
260,340,250,340,100,330,170,160,14,722,721
360,280,360,290,270,220,150,160,4,52,51
320,450,310,450,290,450,30,20,17,892,891
330,200,320,200,120,190,220,210,8,317,316
320,420,330,420,460,190,370,360,5,95,94
220,410,230,410,360,430,160,150,13,660,659
120,320,130,320,290,280,210,200,28,1628,1627
430,150,440,150,450,130,40,30,16,850,849
200,320,210,320,290,280,130,120,28,1620,1619
420,350,420,360,420,410,60,50,22,1233,1232
350,300,340,300,270,220,160,150,4,49,48
110,280,100,280,60,280,50,40,6,107,106
190,220,200,220,370,220,180,170,15,780,779
380,400,380,390,100,330,350,340,14,740,739
370,90,360,90,250,200,230,220,22,1072,1071
70,80,70,70,120,20,110,100,9,380,379
130,70,120,70,60,70,70,60,17,733,732
140,390,150,390,400,390,260,250,7,270,269
400,240,400,250,410,360,130,120,21,1177,1176
150,250,150,240,160,250,10,20,25,1251,1250
30,200,30,190,20,90,120,110,23,1120,1119
120,20,130,20,180,360,400,390,10,470,469
430,220,420,220,420,260,50,40,20,1111,1110
130,310,140,310,160,60,280,270,7,187,186
150,360,150,370,160,380,30,20,11,508,507
430,210,430,220,60,280,440,430,6,146,145
360,410,370,410,470,420,120,110,28,1439,1438
80,440,90,440,380,410,330,320,16,732,731
180,190,180,200,170,260,80,70,8,237,236
170,380,170,390,390,400,240,230,9,318,317
250,470,240,470,70,470,180,170,15,657,0
150,110,140,110,80,350,310,300,6,212,211
460,360,460,350,460,190,170,160,5,75,74
120,220,130,220,370,220,250,240,15,787,786
150,400,160,400,470,420,340,330,28,1461,1460
330,50,340,50,360,270,250,240,3,-23,-24
360,170,360,180,290,450,350,340,17,924,923
430,260,430,270,60,280,390,380,6,141,140
400,300,400,310,410,360,70,60,21,1171,1170
290,250,290,240,270,350,120,130,29,1705,1704
120,50,130,50,70,40,60,70,3,-2,-3
340,100,350,100,460,70,150,140,18,786,785
60,110,70,110,420,120,370,360,25,1428,1427
430,200,430,210,60,280,450,440,6,147,146
80,440,90,440,380,410,330,320,16,732,731
20,300,20,290,20,60,240,230,10,340,339
50,40,60,40,250,10,230,220,11,412,411
20,100,30,100,460,70,470,460,18,818,817
290,390,300,390,390,400,110,100,9,305,304
300,110,310,110,420,120,130,120,25,1404,1403
410,70,400,70,60,70,350,340,17,761,760
420,200,420,190,60,70,490,480,17,775,774
210,50,210,40,70,40,150,140,3,-11,-12
400,260,400,270,70,470,540,530,15,693,692
260,200,250,200,120,190,150,140,8,310,309
120,140,110,140,470,420,630,640,28,1500,1499
310,450,300,450,290,450,20,10,17,891,890
170,240,160,240,20,90,300,290,23,1138,1137
360,120,360,130,290,450,400,390,17,929,928
70,220,80,220,370,220,300,290,15,792,791
20,130,20,120,20,90,40,30,23,1112,1111
230,420,240,420,460,190,460,450,5,104,103
400,80,390,80,290,450,480,470,17,937,936
300,410,310,410,470,420,180,170,28,1445,1444
170,40,160,40,70,40,100,90,3,-16,-17
180,100,190,100,460,70,310,300,18,802,801
240,240,230,240,20,90,370,360,23,1145,1144
400,410,410,410,470,420,80,70,28,1435,1434
80,70,70,70,60,70,20,10,17,728,727
380,200,390,200,410,210,40,30,14,610,609
250,280,250,290,250,450,170,160,4,31,30
370,280,360,280,60,280,310,300,6,133,132
200,400,210,400,470,420,290,280,28,1456,1455
170,390,180,390,360,430,230,220,13,667,666
60,240,60,230,420,120,480,470,25,1441,1440
450,80,440,80,290,450,530,520,17,942,941
130,240,120,240,20,90,260,250,23,1134,1133
420,270,420,260,420,260,10,0,20,1093,1193
360,290,360,280,410,210,130,120,14,633,632
130,50,140,50,70,40,70,80,3,-3,-4
280,240,280,250,270,350,120,110,29,1697,1696
410,160,410,150,450,130,70,60,16,853,852
420,370,420,360,60,70,660,650,17,792,791
150,220,150,210,160,250,40,50,25,1248,1247
300,70,290,70,60,70,240,230,17,750,749
250,220,250,230,20,90,360,370,23,1148,1147
280,120,280,130,160,250,250,240,25,1279,1278
390,80,380,80,290,450,470,460,17,936,935
250,110,260,110,420,120,180,170,25,1409,1408
210,280,210,270,300,160,210,200,19,1050,1049
380,280,390,280,410,210,100,90,14,630,629
190,50,200,50,70,40,130,140,3,-9,-10
230,470,220,470,70,470,160,150,15,655,0
460,330,460,320,460,190,140,130,5,72,71
140,450,130,450,60,330,200,190,24,1369,1368
70,180,80,180,250,450,450,440,4,59,58
430,280,420,280,60,280,370,360,6,139,138
250,420,260,420,380,410,140,130,16,713,712
370,110,380,110,420,120,60,50,25,1397,1396
220,160,230,160,300,160,80,70,19,1037,1036
260,280,250,280,60,280,200,190,6,122,121
200,400,200,390,210,280,130,120,18,976,975
180,40,190,40,170,260,230,240,8,256,255
200,440,190,440,20,60,560,550,10,372,371
450,190,460,190,460,200,20,10,26,1482,1481
320,70,310,70,60,70,260,250,17,752,751
70,180,80,180,250,450,450,440,4,59,58
170,330,160,330,100,330,70,60,14,712,711
240,420,250,420,380,410,150,140,16,714,713
80,390,90,390,400,390,320,310,7,276,275
250,220,260,220,370,220,120,110,15,774,773
160,270,160,280,150,190,90,100,26,1323,1322
190,470,180,470,70,470,120,110,15,651,0
460,280,460,270,460,190,90,80,5,67,66
160,200,160,190,160,60,140,130,7,173,172
400,270,400,260,410,130,150,140,21,994,993
160,290,160,280,160,60,230,220,7,182,181
420,340,420,330,60,70,630,620,17,789,788
350,470,340,470,70,470,280,270,15,667,0
180,110,180,120,170,260,160,150,8,245,244
390,440,380,440,20,60,750,740,10,391,390
240,10,250,10,250,10,10,0,11,390,490
20,390,20,380,20,60,330,320,10,349,348
340,300,330,300,270,220,150,140,4,48,47
200,390,200,380,210,280,120,110,18,975,974
280,270,280,280,270,350,90,80,29,1694,1693
360,50,350,50,280,150,180,170,19,860,859
310,410,320,410,380,410,70,60,16,706,705
110,220,120,220,370,220,260,250,15,788,787
410,190,410,180,410,130,60,50,21,985,984
390,370,400,370,410,130,260,250,21,1011,1010
180,380,180,390,160,380,20,30,11,529,528
420,260,420,250,410,360,110,120,21,1193,1192
460,160,460,150,60,280,520,530,6,156,155
410,410,420,410,420,410,10,0,22,1214,1314
400,220,400,230,410,360,150,140,21,1179,1178
380,260,380,270,130,280,270,260,27,1567,1566
420,420,430,420,470,420,50,40,28,1432,1431
170,180,180,180,250,450,350,340,4,49,48
220,220,230,220,370,220,150,140,15,777,776
20,90,20,80,20,60,30,20,10,319,318
250,390,260,390,390,400,150,140,9,309,308
280,450,270,450,210,280,240,230,18,989,988
160,260,160,250,160,60,200,190,7,179,178
390,280,380,280,60,280,330,320,6,135,134
190,180,200,180,250,450,330,320,4,47,46
330,390,330,400,150,450,240,230,23,1293,1292
60,200,60,190,420,120,440,430,25,1437,1436
360,470,350,470,70,470,290,280,15,668,0
400,420,410,420,420,410,30,20,22,1250,1249
270,270,270,260,270,220,50,40,4,38,37
410,210,410,200,450,130,120,110,16,858,857
440,290,440,300,410,310,50,40,13,544,543
160,210,160,200,160,60,150,140,7,174,173
60,180,70,180,250,450,460,450,4,60,59
250,340,240,340,100,330,160,150,14,721,720
130,310,140,310,160,60,280,270,7,187,186
160,180,160,170,160,60,120,110,7,171,170
310,390,320,390,390,400,90,80,9,303,302
150,160,150,150,120,140,50,40,27,1404,1403
350,160,360,160,420,260,170,160,20,1125,1124
70,210,70,220,470,420,610,600,28,1488,1487
50,450,50,440,380,410,370,360,16,736,735
310,430,320,430,360,430,50,40,13,649,648
70,120,70,130,80,350,240,230,6,203,202
420,420,430,420,420,410,10,20,22,1248,1247
20,90,20,80,240,110,240,250,24,1209,1208
350,280,340,280,130,280,220,210,27,1562,1561
170,300,170,310,390,400,320,310,9,326,325
140,440,150,440,380,410,270,260,16,726,725
270,200,260,200,120,190,160,150,8,311,310
280,60,280,70,280,150,90,80,19,851,850
280,310,280,300,210,280,100,90,18,959,958
160,430,170,430,380,410,240,230,16,723,722
270,390,280,390,390,400,130,120,9,307,306
30,220,30,210,20,90,140,130,23,1122,1121
160,130,170,130,180,360,250,240,10,455,454
280,80,280,90,280,150,70,60,19,849,848
380,250,380,260,130,280,280,270,27,1568,1567
310,370,320,370,390,370,80,70,20,918,917
430,320,420,320,420,410,100,90,22,1237,1236
460,250,450,250,130,280,360,350,27,1576,1575
70,30,70,20,120,20,60,50,9,375,374
130,390,140,390,400,390,270,260,7,271,270
380,370,370,370,150,450,310,300,23,1300,1299
70,280,70,270,370,220,360,350,15,798,797
330,410,340,410,470,420,150,140,28,1442,1441
180,130,180,140,170,260,140,130,8,243,242
190,280,180,280,60,280,130,120,6,115,114
290,280,280,280,60,280,230,220,6,125,124
170,430,160,430,360,430,190,200,13,679,678
290,310,290,300,290,280,30,20,28,1610,1609
70,410,70,400,60,330,90,80,24,1358,1357
170,360,170,370,390,400,260,250,9,320,319
360,450,350,450,290,450,70,60,17,896,895
60,80,60,90,250,450,560,550,4,70,69
70,60,70,50,120,20,90,80,9,378,377
190,390,200,390,400,390,210,200,7,265,264
220,470,210,470,70,470,150,140,15,654,0
140,430,130,430,360,430,220,230,13,676,675
430,80,420,80,290,450,510,500,17,940,939
160,70,150,70,60,70,100,90,17,736,735
420,80,410,80,290,450,500,490,17,939,938
460,210,460,200,460,190,20,10,5,60,59
370,200,380,200,410,210,50,40,14,611,610
430,160,430,170,420,260,110,100,20,1117,1116
280,270,280,280,390,370,210,200,20,931,930
410,350,410,360,410,360,10,0,21,1165,1265
160,260,160,270,150,190,80,90,26,1324,1323
390,430,390,440,20,60,740,750,10,392,391
240,430,250,430,360,430,120,110,13,656,655
280,140,280,150,160,250,230,220,25,1277,1276
190,70,180,70,60,70,130,120,17,739,738
390,220,380,220,410,210,30,40,14,617,616
130,400,140,400,470,420,360,350,28,1463,1462
20,270,20,260,20,60,210,200,10,337,336
300,10,310,10,440,80,210,200,12,485,484
180,430,190,430,180,390,40,50,12,599,598
100,220,110,220,370,220,270,260,15,789,788
320,220,330,220,370,220,50,40,15,767,766
80,110,70,110,80,350,240,250,6,205,204
130,220,140,220,370,220,240,230,15,786,785
360,390,360,400,290,450,130,120,17,902,901
150,140,140,140,120,140,30,20,27,1402,1401
170,320,170,330,390,400,300,290,9,324,323
250,10,260,10,440,80,260,250,12,490,489
70,110,80,110,420,120,360,350,25,1427,1426
60,70,60,80,250,450,570,560,4,71,70
410,250,410,240,120,190,350,340,8,330,329
360,90,360,100,360,270,180,170,3,-30,-31
120,50,130,50,70,40,60,70,3,-2,-3
60,230,60,220,420,120,470,460,25,1440,1439
350,50,340,50,280,150,170,160,19,859,858
410,410,410,420,470,420,70,60,28,1434,1433
400,90,390,90,250,200,260,250,22,1075,1074
280,150,280,160,390,370,330,320,20,943,942
360,60,360,70,360,270,210,200,3,-27,-28
440,40,440,50,440,80,40,30,12,468,467
450,360,460,360,460,190,180,170,5,76,75
260,420,270,420,460,190,430,420,5,101,100
230,250,230,260,250,450,220,210,4,36,35
380,440,370,440,20,60,740,730,10,390,389
220,240,210,240,20,90,350,340,23,1143,1142
160,440,150,440,20,60,520,510,10,368,367
190,250,190,260,160,250,30,40,25,1257,1256
250,420,250,430,250,450,30,20,4,17,16
410,210,400,210,70,470,600,590,15,699,698
100,20,100,10,250,10,160,150,11,405,404
250,420,250,430,250,450,30,20,4,17,16
70,30,70,20,120,20,60,50,9,375,374
360,210,350,210,120,190,260,250,8,321,320
320,410,330,410,470,420,160,150,28,1443,1442
60,400,60,390,60,330,70,60,24,1356,1355
130,50,140,50,360,270,450,440,3,-3,-4
120,310,130,310,160,60,290,280,7,188,187
440,140,440,150,410,310,200,190,13,559,558
420,50,410,50,280,150,240,230,19,866,865
410,390,410,380,120,190,490,480,8,344,343
360,360,360,370,290,450,160,150,17,905,904
280,180,280,190,390,370,300,290,20,940,939
420,310,420,300,420,260,50,40,20,1097,1096
450,250,440,250,130,280,350,340,27,1575,1574
420,220,420,210,60,70,510,500,17,777,776
280,110,290,110,420,120,150,140,25,1406,1405
90,110,80,110,80,350,250,240,6,206,205
150,200,150,190,150,190,10,0,26,1307,1407
130,110,140,110,240,110,110,100,24,1194,1193
150,320,160,320,290,280,180,170,28,1625,1624
100,140,90,140,470,420,650,660,28,1498,1497
60,210,60,200,420,120,450,440,25,1438,1437
160,250,160,260,150,190,70,80,26,1325,1324
190,260,180,260,160,250,40,30,25,1256,1255
60,150,60,160,250,450,490,480,4,63,62
190,420,190,410,180,390,40,30,12,597,596
150,70,140,70,60,70,90,80,17,735,734
110,100,120,100,460,70,380,370,18,809,808
200,430,210,430,380,410,200,190,16,719,718
150,440,150,430,380,410,260,250,16,725,724
410,370,410,380,420,410,50,40,22,1264,1263
410,320,420,320,420,260,70,60,20,1099,1098
210,440,200,440,20,60,570,560,10,373,372
250,160,260,160,300,160,50,40,19,1034,1033
80,280,80,290,290,280,210,220,28,1636,1635
440,50,440,60,440,80,30,20,12,467,466
280,340,280,350,390,370,140,130,20,924,923
270,450,260,450,150,450,120,110,23,1281,1280
70,310,70,320,470,420,510,500,28,1478,1477
330,420,340,420,460,190,360,350,5,94,93
130,140,120,140,120,140,10,0,27,1400,1500
360,390,360,400,420,410,80,70,22,1257,1256
150,110,160,110,240,110,90,80,24,1192,1191
360,290,360,300,270,220,160,170,4,51,50
420,260,420,250,60,70,550,540,17,781,780
280,110,280,120,160,250,260,250,25,1280,1279
120,330,110,330,100,330,20,10,14,707,706
30,280,30,290,160,60,350,360,7,200,199
360,200,370,200,410,210,60,50,14,612,611
170,340,170,350,390,400,280,270,9,322,321
430,160,430,170,60,280,490,480,6,151,150
150,210,150,200,150,190,20,10,26,1308,1307
410,220,410,230,420,260,50,40,20,1109,1108
450,410,450,400,460,190,230,220,5,81,80
70,130,70,140,80,350,230,220,6,202,201
20,300,20,290,20,60,240,230,10,340,339
360,170,360,180,360,270,100,90,3,-38,-39
290,280,290,270,270,350,90,100,29,1708,1707
410,310,410,300,120,190,410,400,8,336,335
160,50,160,40,170,260,220,230,8,259,258
20,110,20,100,20,90,20,10,23,1110,1109
20,230,20,220,20,60,170,160,10,333,332
70,190,70,200,80,350,170,160,6,196,195
20,140,20,130,20,90,50,40,23,1113,1112
170,10,180,10,250,10,80,70,11,397,396
340,50,330,50,280,150,160,150,19,858,857
320,160,330,160,420,260,200,190,20,1128,1127
270,410,280,410,470,420,210,200,28,1448,1447
110,110,100,110,80,350,270,260,6,208,207
240,450,230,450,460,190,480,490,5,114,113
180,190,170,190,120,190,60,50,8,301,300
340,440,330,440,20,60,700,690,10,386,385
190,470,180,470,70,470,120,110,15,651,0
330,390,340,390,390,400,70,60,9,301,300
110,450,100,450,60,330,170,160,24,1366,1365
320,450,310,450,150,450,170,160,23,1286,1285
390,250,380,250,130,280,290,280,27,1569,1568
200,280,190,280,60,280,140,130,6,116,115
40,440,30,440,20,60,400,390,10,356,355
140,110,130,110,80,350,300,290,6,211,210
160,150,160,140,160,60,90,80,7,168,167
70,140,70,150,470,420,680,670,28,1495,1494
250,400,250,410,250,450,50,40,4,19,18
80,290,80,300,80,350,60,50,6,185,184
220,10,230,10,250,10,30,20,11,392,391
230,340,220,340,100,330,140,130,14,719,718
220,200,210,200,120,190,110,100,8,306,305
190,100,200,100,460,70,300,290,18,801,800
200,450,200,440,210,280,180,170,18,981,980
190,250,190,260,160,250,30,40,25,1257,1256
420,160,430,160,420,260,100,110,20,1118,1117
420,10,430,10,440,80,90,80,12,473,472
60,180,60,170,420,120,420,410,25,1435,1434
180,160,180,170,170,260,110,100,8,240,239
350,410,360,410,420,410,70,60,22,1220,1219
20,100,20,90,20,90,10,0,23,1109,1209
270,210,270,200,180,150,150,140,5,133,132
240,410,240,420,360,430,140,130,13,658,657
420,100,430,100,460,70,70,60,18,778,777
60,80,60,90,250,450,560,550,4,70,69
150,10,160,10,250,10,100,90,11,399,398
420,190,430,190,460,200,50,40,26,1485,1484
50,280,40,280,160,60,330,340,7,202,201
450,380,450,370,460,190,200,190,5,78,77
410,240,410,250,420,260,30,20,20,1107,1106
160,90,160,100,180,360,290,280,10,459,458
250,330,250,340,250,450,120,110,4,26,25
60,330,60,320,420,120,570,560,25,1450,1449
190,380,190,370,180,390,20,30,12,593,592
250,290,250,300,250,450,160,150,4,30,29
150,190,150,180,120,140,80,70,27,1407,1406
240,220,250,220,370,220,130,120,15,775,774
360,300,350,300,270,220,170,160,4,50,49
330,430,340,430,360,430,30,20,13,647,646
420,150,430,150,450,130,50,40,16,851,850
370,220,360,220,410,210,50,60,14,615,614
270,160,280,160,300,160,30,20,19,1032,1031
220,370,230,370,210,280,100,110,18,971,970
320,350,310,350,100,330,240,230,14,729,728
310,280,300,280,130,280,180,170,27,1558,1557
240,70,230,70,60,70,180,170,17,744,743
120,280,110,280,60,280,60,50,6,108,107
130,10,140,10,250,10,120,110,11,401,400
160,430,150,430,360,430,200,210,13,678,677
20,90,20,80,240,110,240,250,24,1209,1208
440,20,440,30,440,80,60,50,12,470,469
410,190,400,190,410,360,170,180,21,1183,1182
140,190,130,190,120,190,20,10,8,297,296
170,210,170,220,170,260,50,40,8,234,233
400,290,400,300,70,470,510,500,15,690,689
460,310,460,300,460,190,120,110,5,70,69
360,130,360,140,290,450,390,380,17,928,927
420,230,420,220,60,70,520,510,17,778,777
230,260,240,260,250,450,210,200,4,35,34
90,240,80,240,20,90,220,210,23,1130,1129
420,400,410,400,420,410,10,20,22,1228,1227
100,440,90,440,20,60,460,450,10,362,361
200,390,210,390,400,390,200,190,7,264,263
150,100,160,100,460,70,340,330,18,805,804
210,400,220,400,470,420,280,270,28,1455,1454
450,390,450,380,460,190,210,200,5,79,78
190,390,200,390,390,400,210,200,9,315,314
250,350,250,360,250,450,100,90,4,24,23
360,410,370,410,420,410,60,50,22,1219,1218
420,120,420,110,60,70,410,400,17,767,766
330,110,340,110,420,120,100,90,25,1401,1400
150,150,150,140,120,140,40,30,27,1403,1402
140,390,150,390,360,430,260,250,13,670,669
280,230,280,240,270,350,130,120,29,1698,1697
100,440,110,440,380,410,310,300,16,730,729
50,280,40,280,160,60,330,340,7,202,201
350,410,360,410,380,410,30,20,16,702,701
110,280,100,280,290,280,180,190,28,1639,1638
230,110,240,110,420,120,200,190,25,1411,1410
390,420,400,420,460,190,300,290,5,88,87
340,110,350,110,420,120,90,80,25,1400,1399
300,410,310,410,470,420,180,170,28,1445,1444
430,220,430,210,410,360,160,170,21,1188,1187
250,140,250,150,250,200,60,50,22,1055,1054
80,110,70,110,80,350,240,250,6,205,204
20,280,20,270,20,60,220,210,10,338,337
420,310,410,310,410,310,10,0,13,540,640
140,320,150,320,290,280,190,180,28,1626,1625
230,450,220,450,460,190,490,500,5,113,112
280,250,280,260,390,370,230,220,20,933,932
190,440,180,440,20,60,550,540,10,371,370
220,110,230,110,240,110,20,10,24,1185,1184
430,420,440,420,460,190,260,250,5,84,83
290,230,290,220,270,350,140,150,29,1703,1702
180,470,170,470,70,470,110,100,15,650,0
410,50,400,50,280,150,230,220,19,865,864
430,360,430,350,410,130,250,240,21,1006,1005
20,370,20,360,20,60,310,300,10,347,346
130,190,120,190,120,190,10,0,8,296,396
410,250,400,250,130,280,310,300,27,1571,1570
240,440,230,440,20,60,600,590,10,376,375
70,190,70,180,120,20,220,210,9,391,390
300,470,290,470,70,470,230,220,15,662,0
70,440,80,440,380,410,340,330,16,733,732
290,280,290,270,270,350,90,100,29,1708,1707
410,360,410,350,120,190,460,450,8,341,340
400,320,400,330,70,470,480,470,15,687,686
400,220,410,220,450,130,140,130,16,860,859
80,20,90,20,120,20,40,30,9,373,372
140,280,130,280,60,280,80,70,6,110,109
100,400,110,400,470,420,390,380,28,1466,1465
320,50,310,50,280,150,140,130,19,856,855
360,440,360,450,290,450,80,70,17,897,896
420,130,420,120,60,70,420,410,17,768,767
80,40,90,40,250,10,200,190,11,409,408
180,120,180,130,170,260,150,140,8,244,243
90,330,80,330,370,220,390,400,15,805,804
420,320,420,330,420,410,90,80,22,1236,1235
450,370,440,370,150,450,380,370,23,1307,1306
340,410,350,410,380,410,40,30,16,703,702
210,190,210,180,300,160,120,110,19,1041,1040
160,280,160,270,160,60,220,210,7,181,180
390,390,400,390,400,390,10,0,7,245,345
450,400,450,390,460,190,220,210,5,80,79
410,230,410,220,120,190,330,320,8,328,327
120,180,130,180,250,450,400,390,4,54,53
180,330,170,330,100,330,80,70,14,713,712
20,210,20,200,20,60,150,140,10,331,330
60,390,60,380,60,330,60,50,24,1355,1354
450,420,460,420,470,420,20,10,28,1429,1428
410,280,410,270,120,190,380,370,8,333,332
270,280,260,280,130,280,140,130,27,1554,1553
460,60,460,50,280,150,270,280,19,871,870
430,220,430,230,60,280,430,420,6,145,144
170,430,180,430,180,390,50,40,12,600,599
280,390,290,390,390,400,120,110,9,306,305
410,400,400,400,420,410,20,30,22,1227,1226
300,280,290,280,130,280,170,160,27,1557,1556
140,320,140,310,160,380,80,90,11,515,514
120,400,130,400,470,420,370,360,28,1464,1463
260,90,250,90,250,200,120,110,22,1061,1060
80,40,70,40,70,40,10,0,3,-25,75
270,430,280,430,360,430,90,80,13,653,652
130,470,120,470,70,470,60,50,15,645,0
450,400,450,390,460,190,220,210,5,80,79
180,50,190,50,360,270,400,390,3,-8,-9
240,100,250,100,460,70,250,240,18,796,795
260,410,270,410,470,420,220,210,28,1449,1448
280,250,280,260,270,350,110,100,29,1696,1695
160,320,170,320,290,280,170,160,28,1624,1623
80,400,90,400,470,420,410,400,28,1468,1467
210,390,220,390,390,400,190,180,9,313,312
80,110,90,110,420,120,350,340,25,1426,1425
330,430,330,440,150,450,200,190,23,1289,1288
420,70,410,70,60,70,360,350,17,762,761
210,220,220,220,370,220,160,150,15,778,777
450,150,450,140,450,130,20,10,16,848,847
260,70,250,70,60,70,200,190,17,746,745
250,370,250,380,250,450,80,70,4,22,21
360,90,360,100,290,450,430,420,17,932,931
430,170,430,180,420,260,100,90,20,1116,1115
290,440,280,440,20,60,650,640,10,381,380
340,220,350,220,370,220,30,20,15,765,764
430,350,430,340,420,410,70,80,22,1240,1239
160,50,170,50,360,270,420,410,3,-6,-7
110,440,120,440,380,410,300,290,16,729,728
380,390,370,390,420,410,60,70,22,1259,1258
440,240,440,250,410,310,100,90,13,549,548
450,110,450,100,290,450,500,510,17,945,944
210,430,220,430,380,410,190,180,16,718,717
200,110,210,110,240,110,40,30,24,1187,1186
460,420,470,420,470,420,10,0,28,1428,0
180,340,180,350,180,360,20,10,10,432,431
340,410,350,410,470,420,140,130,28,1441,1440
450,250,440,250,130,280,350,340,27,1575,1574
150,220,150,210,150,190,30,20,26,1309,1308
210,240,200,240,20,90,340,330,23,1142,1141
320,390,330,390,390,400,80,70,9,302,301
210,240,210,230,300,160,170,160,19,1046,1045
280,420,290,420,380,410,110,100,16,710,709
160,260,150,260,160,250,10,20,25,1253,1252
190,50,200,50,360,270,390,380,3,-9,-10
160,140,160,130,160,60,80,70,7,167,166
180,130,180,120,80,350,320,330,6,217,216
300,430,310,430,360,430,60,50,13,650,649
40,440,30,440,20,60,400,390,10,356,355
280,70,270,70,60,70,220,210,17,748,747
290,340,280,340,100,330,200,190,14,725,724
80,250,80,260,80,350,100,90,6,189,188
230,220,230,230,250,450,250,240,4,39,38
430,400,430,390,420,410,20,30,22,1245,1244
70,300,70,290,370,220,380,370,15,800,799
60,380,60,370,60,330,50,40,24,1354,1353
150,320,150,330,160,380,70,60,11,512,511
250,200,250,210,20,90,340,350,23,1150,1149
400,450,400,460,70,470,350,340,15,674,673
420,250,420,240,60,70,540,530,17,780,779
420,100,420,90,60,70,390,380,17,765,764
100,440,90,440,20,60,460,450,10,362,361
20,370,20,360,20,60,310,300,10,347,346
400,300,400,290,410,130,180,170,21,997,996
430,370,420,370,150,450,360,350,23,1305,1304
240,430,250,430,360,430,120,110,13,656,655
230,320,240,320,290,280,100,90,28,1617,1616
260,390,270,390,400,390,140,130,7,258,257
290,90,280,90,250,200,150,140,22,1064,1063
330,390,340,390,390,400,70,60,9,301,300
190,330,180,330,100,330,90,80,14,714,713
70,430,70,420,60,330,110,100,24,1360,1359
340,160,350,160,420,260,180,170,20,1126,1125
230,420,240,420,460,190,460,450,5,104,103
360,270,360,280,290,450,250,240,17,914,913
220,390,230,390,390,400,180,170,9,312,311
90,180,100,180,250,450,430,420,4,57,56
270,430,280,430,360,430,90,80,13,653,652
180,70,170,70,60,70,120,110,17,738,737
140,390,150,390,400,390,260,250,7,270,269
440,290,440,300,410,310,50,40,13,544,543
160,220,160,230,160,250,30,20,25,1227,1226
320,390,330,390,400,390,80,70,7,252,251
380,160,390,160,420,260,140,130,20,1122,1121
350,430,360,430,360,430,10,0,13,645,745
350,450,340,450,290,450,60,50,17,895,894
250,180,240,180,180,150,100,90,5,128,127
130,140,120,140,120,140,10,0,27,1400,1500
450,410,450,400,150,450,340,350,23,1311,1310
170,220,170,230,170,260,40,30,8,233,232
160,180,160,190,160,250,70,60,25,1231,1230
70,260,70,270,470,420,560,550,28,1483,1482
170,270,170,280,390,400,350,340,9,329,328
420,90,420,80,60,70,380,370,17,764,763
250,400,250,410,470,420,240,230,28,1451,1450
350,280,340,280,130,280,220,210,27,1562,1561
30,230,30,220,20,90,150,140,23,1123,1122
170,210,170,220,180,360,160,150,10,446,445
410,300,400,300,410,130,170,180,21,998,997
360,10,370,10,440,80,150,140,12,479,478
70,440,60,440,20,60,430,420,10,359,358
240,440,230,440,20,60,600,590,10,376,375
420,110,420,120,420,120,10,0,25,1392,1492
120,110,130,110,420,120,310,300,25,1422,1421
400,300,400,290,410,130,180,170,21,997,996
