@relation 'snake_game-weka.filters.unsupervised.attribute.Remove-R7-10,12-19-weka.filters.unsupervised.instance.RemovePercentage-P20.0'

@attribute snake_pos_x numeric
@attribute snake_pos_y numeric
@attribute snake_pos_x_next numeric
@attribute snake_pos_y_next numeric
@attribute food_pos_x numeric
@attribute food_pos_y numeric
@attribute large_snake numeric
@attribute score numeric
@attribute next_score numeric

@data
80,330,70,330,370,220,15,804,803
80,330,70,330,370,220,15,804,803
70,330,70,320,370,220,15,803,802
70,330,70,320,370,220,15,803,802
70,320,70,310,370,220,15,802,801
70,320,70,310,370,220,15,802,801
70,310,70,300,370,220,15,801,800
70,310,70,300,370,220,15,801,800
70,300,70,290,370,220,15,800,799
70,300,70,290,370,220,15,800,799
70,290,70,280,370,220,15,799,798
70,290,70,280,370,220,15,799,798
70,280,70,270,370,220,15,798,797
70,280,70,270,370,220,15,798,797
70,270,70,260,370,220,15,797,796
70,270,70,260,370,220,15,797,796
70,260,70,250,370,220,15,796,795
70,260,70,250,370,220,15,796,795
70,250,70,240,370,220,15,795,794
70,250,70,240,370,220,15,795,794
70,240,70,230,370,220,15,794,793
70,240,70,230,370,220,15,794,793
70,230,70,220,370,220,15,793,792
70,230,70,220,370,220,15,793,792
70,220,80,220,370,220,15,792,791
70,220,80,220,370,220,15,792,791
80,220,90,220,370,220,15,791,790
80,220,90,220,370,220,15,791,790
90,220,100,220,370,220,15,790,789
90,220,100,220,370,220,15,790,789
100,220,110,220,370,220,15,789,788
100,220,110,220,370,220,15,789,788
110,220,120,220,370,220,15,788,787
110,220,120,220,370,220,15,788,787
120,220,130,220,370,220,15,787,786
120,220,130,220,370,220,15,787,786
130,220,140,220,370,220,15,786,785
130,220,140,220,370,220,15,786,785
140,220,150,220,370,220,15,785,784
140,220,150,220,370,220,15,785,784
150,220,160,220,370,220,15,784,783
150,220,160,220,370,220,15,784,783
160,220,170,220,370,220,15,783,782
160,220,170,220,370,220,15,783,782
170,220,180,220,370,220,15,782,781
170,220,180,220,370,220,15,782,781
180,220,190,220,370,220,15,781,780
180,220,190,220,370,220,15,781,780
190,220,200,220,370,220,15,780,779
190,220,200,220,370,220,15,780,779
200,220,210,220,370,220,15,779,778
200,220,210,220,370,220,15,779,778
210,220,220,220,370,220,15,778,777
210,220,220,220,370,220,15,778,777
220,220,230,220,370,220,15,777,776
220,220,230,220,370,220,15,777,776
230,220,240,220,370,220,15,776,775
230,220,240,220,370,220,15,776,775
240,220,250,220,370,220,15,775,774
240,220,250,220,370,220,15,775,774
250,220,260,220,370,220,15,774,773
250,220,260,220,370,220,15,774,773
260,220,270,220,370,220,15,773,772
260,220,270,220,370,220,15,773,772
270,220,280,220,370,220,15,772,771
270,220,280,220,370,220,15,772,771
280,220,290,220,370,220,15,771,770
280,220,290,220,370,220,15,771,770
290,220,300,220,370,220,15,770,769
290,220,300,220,370,220,15,770,769
300,220,310,220,370,220,15,769,768
300,220,310,220,370,220,15,769,768
310,220,320,220,370,220,15,768,767
310,220,320,220,370,220,15,768,767
320,220,330,220,370,220,15,767,766
320,220,330,220,370,220,15,767,766
330,220,340,220,370,220,15,766,765
330,220,340,220,370,220,15,766,765
340,220,350,220,370,220,15,765,764
340,220,350,220,370,220,15,765,764
350,220,360,220,370,220,15,764,763
350,220,360,220,370,220,15,764,763
360,220,370,220,370,220,15,763,863
360,220,370,220,370,220,15,763,863
370,220,380,220,450,130,16,863,862
370,220,380,220,450,130,16,863,862
380,220,390,220,450,130,16,862,861
380,220,390,220,450,130,16,862,861
390,220,400,220,450,130,16,861,860
390,220,400,220,450,130,16,861,860
400,220,410,220,450,130,16,860,859
400,220,410,220,450,130,16,860,859
410,220,410,210,450,130,16,859,858
410,220,410,210,450,130,16,859,858
410,210,410,200,450,130,16,858,857
410,210,410,200,450,130,16,858,857
410,200,410,190,450,130,16,857,856
410,200,410,190,450,130,16,857,856
410,190,410,180,450,130,16,856,855
410,190,410,180,450,130,16,856,855
410,180,410,170,450,130,16,855,854
410,180,410,170,450,130,16,855,854
410,170,410,160,450,130,16,854,853
410,170,410,160,450,130,16,854,853
410,160,410,150,450,130,16,853,852
410,160,410,150,450,130,16,853,852
410,150,420,150,450,130,16,852,851
410,150,420,150,450,130,16,852,851
420,150,430,150,450,130,16,851,850
420,150,430,150,450,130,16,851,850
430,150,440,150,450,130,16,850,849
430,150,440,150,450,130,16,850,849
440,150,450,150,450,130,16,849,848
440,150,450,150,450,130,16,849,848
450,150,450,140,450,130,16,848,847
450,150,450,140,450,130,16,848,847
450,140,450,130,450,130,16,847,947
450,140,450,130,450,130,16,847,947
450,130,450,120,290,450,17,947,946
450,130,450,120,290,450,17,947,946
450,120,450,110,290,450,17,946,945
450,120,450,110,290,450,17,946,945
450,110,450,100,290,450,17,945,944
450,110,450,100,290,450,17,945,944
450,100,450,90,290,450,17,944,943
450,100,450,90,290,450,17,944,943
450,90,450,80,290,450,17,943,942
450,90,450,80,290,450,17,943,942
450,80,440,80,290,450,17,942,941
450,80,440,80,290,450,17,942,941
440,80,430,80,290,450,17,941,940
440,80,430,80,290,450,17,941,940
430,80,420,80,290,450,17,940,939
430,80,420,80,290,450,17,940,939
420,80,410,80,290,450,17,939,938
420,80,410,80,290,450,17,939,938
410,80,400,80,290,450,17,938,937
410,80,400,80,290,450,17,938,937
400,80,390,80,290,450,17,937,936
400,80,390,80,290,450,17,937,936
390,80,380,80,290,450,17,936,935
390,80,380,80,290,450,17,936,935
380,80,370,80,290,450,17,935,934
380,80,370,80,290,450,17,935,934
370,80,360,80,290,450,17,934,933
370,80,360,80,290,450,17,934,933
360,80,360,90,290,450,17,933,932
360,80,360,90,290,450,17,933,932
360,90,360,100,290,450,17,932,931
360,90,360,100,290,450,17,932,931
360,100,360,110,290,450,17,931,930
360,100,360,110,290,450,17,931,930
360,110,360,120,290,450,17,930,929
360,110,360,120,290,450,17,930,929
360,120,360,130,290,450,17,929,928
360,120,360,130,290,450,17,929,928
360,130,360,140,290,450,17,928,927
360,130,360,140,290,450,17,928,927
360,140,360,150,290,450,17,927,926
360,140,360,150,290,450,17,927,926
360,150,360,160,290,450,17,926,925
360,150,360,160,290,450,17,926,925
360,160,360,170,290,450,17,925,924
360,160,360,170,290,450,17,925,924
360,170,360,180,290,450,17,924,923
360,170,360,180,290,450,17,924,923
360,180,360,190,290,450,17,923,922
360,180,360,190,290,450,17,923,922
360,190,360,200,290,450,17,922,921
360,190,360,200,290,450,17,922,921
360,200,360,210,290,450,17,921,920
360,200,360,210,290,450,17,921,920
360,210,360,220,290,450,17,920,919
360,210,360,220,290,450,17,920,919
360,220,360,230,290,450,17,919,918
360,220,360,230,290,450,17,919,918
360,230,360,240,290,450,17,918,917
360,230,360,240,290,450,17,918,917
360,240,360,250,290,450,17,917,916
360,240,360,250,290,450,17,917,916
360,250,360,260,290,450,17,916,915
360,250,360,260,290,450,17,916,915
360,260,360,270,290,450,17,915,914
360,260,360,270,290,450,17,915,914
360,270,360,280,290,450,17,914,913
360,270,360,280,290,450,17,914,913
360,280,360,290,290,450,17,913,912
360,280,360,290,290,450,17,913,912
360,290,360,300,290,450,17,912,911
360,290,360,300,290,450,17,912,911
360,300,360,310,290,450,17,911,910
360,300,360,310,290,450,17,911,910
360,310,360,320,290,450,17,910,909
360,310,360,320,290,450,17,910,909
360,320,360,330,290,450,17,909,908
360,320,360,330,290,450,17,909,908
360,330,360,340,290,450,17,908,907
360,330,360,340,290,450,17,908,907
360,340,360,350,290,450,17,907,906
360,340,360,350,290,450,17,907,906
360,350,360,360,290,450,17,906,905
360,350,360,360,290,450,17,906,905
360,360,360,370,290,450,17,905,904
360,360,360,370,290,450,17,905,904
360,370,360,380,290,450,17,904,903
360,370,360,380,290,450,17,904,903
360,380,360,390,290,450,17,903,902
360,380,360,390,290,450,17,903,902
360,390,360,400,290,450,17,902,901
360,390,360,400,290,450,17,902,901
360,400,360,410,290,450,17,901,900
360,400,360,410,290,450,17,901,900
360,410,360,420,290,450,17,900,899
360,410,360,420,290,450,17,900,899
360,420,360,430,290,450,17,899,898
360,420,360,430,290,450,17,899,898
360,430,360,440,290,450,17,898,897
360,430,360,440,290,450,17,898,897
360,440,360,450,290,450,17,897,896
360,440,360,450,290,450,17,897,896
360,450,350,450,290,450,17,896,895
360,450,350,450,290,450,17,896,895
350,450,340,450,290,450,17,895,894
350,450,340,450,290,450,17,895,894
340,450,330,450,290,450,17,894,893
340,450,330,450,290,450,17,894,893
330,450,320,450,290,450,17,893,892
330,450,320,450,290,450,17,893,892
320,450,310,450,290,450,17,892,891
320,450,310,450,290,450,17,892,891
310,450,300,450,290,450,17,891,890
310,450,300,450,290,450,17,891,890
300,450,290,450,290,450,17,890,990
300,450,290,450,290,450,17,890,990
290,450,280,450,210,280,18,990,989
290,450,280,450,210,280,18,990,989
280,450,270,450,210,280,18,989,988
280,450,270,450,210,280,18,989,988
270,450,260,450,210,280,18,988,987
270,450,260,450,210,280,18,988,987
260,450,250,450,210,280,18,987,986
260,450,250,450,210,280,18,987,986
250,450,240,450,210,280,18,986,985
250,450,240,450,210,280,18,986,985
240,450,230,450,210,280,18,985,984
240,450,230,450,210,280,18,985,984
230,450,220,450,210,280,18,984,983
230,450,220,450,210,280,18,984,983
220,450,210,450,210,280,18,983,982
220,450,210,450,210,280,18,983,982
210,450,200,450,210,280,18,982,981
210,450,200,450,210,280,18,982,981
200,450,200,440,210,280,18,981,980
200,450,200,440,210,280,18,981,980
200,440,200,430,210,280,18,980,979
200,440,200,430,210,280,18,980,979
200,430,200,420,210,280,18,979,978
200,430,200,420,210,280,18,979,978
200,420,200,410,210,280,18,978,977
200,420,200,410,210,280,18,978,977
200,410,200,400,210,280,18,977,976
200,410,200,400,210,280,18,977,976
200,400,200,390,210,280,18,976,975
200,400,200,390,210,280,18,976,975
200,390,200,380,210,280,18,975,974
200,390,200,380,210,280,18,975,974
200,380,200,370,210,280,18,974,973
200,380,200,370,210,280,18,974,973
200,370,210,370,210,280,18,973,972
200,370,210,370,210,280,18,973,972
210,370,220,370,210,280,18,972,971
210,370,220,370,210,280,18,972,971
220,370,230,370,210,280,18,971,970
220,370,230,370,210,280,18,971,970
230,370,240,370,210,280,18,970,969
230,370,240,370,210,280,18,970,969
240,370,250,370,210,280,18,969,968
240,370,250,370,210,280,18,969,968
250,370,260,370,210,280,18,968,967
250,370,260,370,210,280,18,968,967
260,370,270,370,210,280,18,967,966
260,370,270,370,210,280,18,967,966
270,370,280,370,210,280,18,966,965
270,370,280,370,210,280,18,966,965
280,370,280,360,210,280,18,965,964
280,370,280,360,210,280,18,965,964
280,360,280,350,210,280,18,964,963
280,360,280,350,210,280,18,964,963
280,350,280,340,210,280,18,963,962
280,350,280,340,210,280,18,963,962
280,340,280,330,210,280,18,962,961
280,340,280,330,210,280,18,962,961
280,330,280,320,210,280,18,961,960
280,330,280,320,210,280,18,961,960
280,320,280,310,210,280,18,960,959
280,320,280,310,210,280,18,960,959
280,310,280,300,210,280,18,959,958
280,310,280,300,210,280,18,959,958
280,300,280,290,210,280,18,958,957
280,300,280,290,210,280,18,958,957
280,290,270,290,210,280,18,957,956
280,290,270,290,210,280,18,957,956
270,290,260,290,210,280,18,956,955
270,290,260,290,210,280,18,956,955
260,290,250,290,210,280,18,955,954
260,290,250,290,210,280,18,955,954
250,290,240,290,210,280,18,954,953
250,290,240,290,210,280,18,954,953
240,290,230,290,210,280,18,953,952
240,290,230,290,210,280,18,953,952
230,290,220,290,210,280,18,952,951
230,290,220,290,210,280,18,952,951
220,290,210,290,210,280,18,951,950
220,290,210,290,210,280,18,951,950
210,290,210,280,210,280,18,950,1050
210,290,210,280,210,280,18,950,1050
210,280,210,270,300,160,19,1050,1049
210,280,210,270,300,160,19,1050,1049
210,270,210,260,300,160,19,1049,1048
210,270,210,260,300,160,19,1049,1048
210,260,210,250,300,160,19,1048,1047
210,260,210,250,300,160,19,1048,1047
210,250,210,240,300,160,19,1047,1046
210,250,210,240,300,160,19,1047,1046
210,240,210,230,300,160,19,1046,1045
210,240,210,230,300,160,19,1046,1045
210,230,210,220,300,160,19,1045,1044
210,230,210,220,300,160,19,1045,1044
210,220,210,210,300,160,19,1044,1043
210,220,210,210,300,160,19,1044,1043
210,210,210,200,300,160,19,1043,1042
210,210,210,200,300,160,19,1043,1042
210,200,210,190,300,160,19,1042,1041
210,200,210,190,300,160,19,1042,1041
210,190,210,180,300,160,19,1041,1040
210,190,210,180,300,160,19,1041,1040
210,180,210,170,300,160,19,1040,1039
210,180,210,170,300,160,19,1040,1039
210,170,210,160,300,160,19,1039,1038
210,170,210,160,300,160,19,1039,1038
210,160,220,160,300,160,19,1038,1037
210,160,220,160,300,160,19,1038,1037
220,160,230,160,300,160,19,1037,1036
220,160,230,160,300,160,19,1037,1036
230,160,240,160,300,160,19,1036,1035
230,160,240,160,300,160,19,1036,1035
240,160,250,160,300,160,19,1035,1034
240,160,250,160,300,160,19,1035,1034
250,160,260,160,300,160,19,1034,1033
250,160,260,160,300,160,19,1034,1033
260,160,270,160,300,160,19,1033,1032
260,160,270,160,300,160,19,1033,1032
270,160,280,160,300,160,19,1032,1031
270,160,280,160,300,160,19,1032,1031
280,160,290,160,300,160,19,1031,1030
280,160,290,160,300,160,19,1031,1030
290,160,300,160,300,160,19,1030,1130
290,160,300,160,300,160,19,1030,1130
300,160,310,160,420,260,20,1130,1129
300,160,310,160,420,260,20,1130,1129
310,160,320,160,420,260,20,1129,1128
310,160,320,160,420,260,20,1129,1128
320,160,330,160,420,260,20,1128,1127
320,160,330,160,420,260,20,1128,1127
330,160,340,160,420,260,20,1127,1126
330,160,340,160,420,260,20,1127,1126
340,160,350,160,420,260,20,1126,1125
340,160,350,160,420,260,20,1126,1125
350,160,360,160,420,260,20,1125,1124
350,160,360,160,420,260,20,1125,1124
360,160,370,160,420,260,20,1124,1123
360,160,370,160,420,260,20,1124,1123
370,160,380,160,420,260,20,1123,1122
370,160,380,160,420,260,20,1123,1122
380,160,390,160,420,260,20,1122,1121
380,160,390,160,420,260,20,1122,1121
390,160,400,160,420,260,20,1121,1120
390,160,400,160,420,260,20,1121,1120
400,160,410,160,420,260,20,1120,1119
400,160,410,160,420,260,20,1120,1119
410,160,420,160,420,260,20,1119,1118
410,160,420,160,420,260,20,1119,1118
420,160,430,160,420,260,20,1118,1117
420,160,430,160,420,260,20,1118,1117
430,160,430,170,420,260,20,1117,1116
430,160,430,170,420,260,20,1117,1116
430,170,430,180,420,260,20,1116,1115
430,170,430,180,420,260,20,1116,1115
430,180,430,190,420,260,20,1115,1114
430,180,430,190,420,260,20,1115,1114
430,190,430,200,420,260,20,1114,1113
430,190,430,200,420,260,20,1114,1113
430,200,430,210,420,260,20,1113,1112
430,200,430,210,420,260,20,1113,1112
430,210,430,220,420,260,20,1112,1111
430,210,430,220,420,260,20,1112,1111
430,220,420,220,420,260,20,1111,1110
430,220,420,220,420,260,20,1111,1110
420,220,410,220,420,260,20,1110,1109
420,220,410,220,420,260,20,1110,1109
410,220,410,230,420,260,20,1109,1108
410,220,410,230,420,260,20,1109,1108
410,230,410,240,420,260,20,1108,1107
410,230,410,240,420,260,20,1108,1107
410,240,410,250,420,260,20,1107,1106
410,240,410,250,420,260,20,1107,1106
410,250,410,260,420,260,20,1106,1105
410,250,410,260,420,260,20,1106,1105
410,260,410,270,420,260,20,1105,1104
410,260,410,270,420,260,20,1105,1104
410,270,410,280,420,260,20,1104,1103
410,270,410,280,420,260,20,1104,1103
410,280,410,290,420,260,20,1103,1102
410,280,410,290,420,260,20,1103,1102
410,290,410,300,420,260,20,1102,1101
410,290,410,300,420,260,20,1102,1101
410,300,410,310,420,260,20,1101,1100
410,300,410,310,420,260,20,1101,1100
410,310,410,320,420,260,20,1100,1099
410,310,410,320,420,260,20,1100,1099
410,320,420,320,420,260,20,1099,1098
410,320,420,320,420,260,20,1099,1098
420,320,420,310,420,260,20,1098,1097
420,320,420,310,420,260,20,1098,1097
420,310,420,300,420,260,20,1097,1096
420,310,420,300,420,260,20,1097,1096
420,300,420,290,420,260,20,1096,1095
420,300,420,290,420,260,20,1096,1095
420,290,420,280,420,260,20,1095,1094
420,290,420,280,420,260,20,1095,1094
420,280,420,270,420,260,20,1094,1093
420,280,420,270,420,260,20,1094,1093
420,270,420,260,420,260,20,1093,1193
420,270,420,260,420,260,20,1093,1193
420,260,420,250,410,360,21,1193,1192
420,260,420,250,410,360,21,1193,1192
420,250,430,250,410,360,21,1192,1191
420,250,430,250,410,360,21,1192,1191
430,250,430,240,410,360,21,1191,1190
430,250,430,240,410,360,21,1191,1190
430,240,430,230,410,360,21,1190,1189
430,240,430,230,410,360,21,1190,1189
430,230,430,220,410,360,21,1189,1188
430,230,430,220,410,360,21,1189,1188
430,220,430,210,410,360,21,1188,1187
430,220,430,210,410,360,21,1188,1187
430,210,430,200,410,360,21,1187,1186
430,210,430,200,410,360,21,1187,1186
430,200,430,190,410,360,21,1186,1185
430,200,430,190,410,360,21,1186,1185
430,190,420,190,410,360,21,1185,1184
430,190,420,190,410,360,21,1185,1184
420,190,410,190,410,360,21,1184,1183
420,190,410,190,410,360,21,1184,1183
410,190,400,190,410,360,21,1183,1182
410,190,400,190,410,360,21,1183,1182
400,190,400,200,410,360,21,1182,1181
400,190,400,200,410,360,21,1182,1181
400,200,400,210,410,360,21,1181,1180
400,200,400,210,410,360,21,1181,1180
400,210,400,220,410,360,21,1180,1179
400,210,400,220,410,360,21,1180,1179
400,220,400,230,410,360,21,1179,1178
400,220,400,230,410,360,21,1179,1178
400,230,400,240,410,360,21,1178,1177
400,230,400,240,410,360,21,1178,1177
400,240,400,250,410,360,21,1177,1176
400,240,400,250,410,360,21,1177,1176
400,250,400,260,410,360,21,1176,1175
400,250,400,260,410,360,21,1176,1175
400,260,400,270,410,360,21,1175,1174
400,260,400,270,410,360,21,1175,1174
400,270,400,280,410,360,21,1174,1173
400,270,400,280,410,360,21,1174,1173
400,280,400,290,410,360,21,1173,1172
400,280,400,290,410,360,21,1173,1172
400,290,400,300,410,360,21,1172,1171
400,290,400,300,410,360,21,1172,1171
400,300,400,310,410,360,21,1171,1170
400,300,400,310,410,360,21,1171,1170
400,310,410,310,410,360,21,1170,1169
400,310,410,310,410,360,21,1170,1169
410,310,410,320,410,360,21,1169,1168
410,310,410,320,410,360,21,1169,1168
410,320,410,330,410,360,21,1168,1167
410,320,410,330,410,360,21,1168,1167
410,330,410,340,410,360,21,1167,1166
410,330,410,340,410,360,21,1167,1166
410,340,410,350,410,360,21,1166,1165
410,340,410,350,410,360,21,1166,1165
410,350,410,360,410,360,21,1165,1265
410,350,410,360,410,360,21,1165,1265
410,360,410,370,420,410,22,1265,1264
410,360,410,370,420,410,22,1265,1264
410,370,410,380,420,410,22,1264,1263
410,370,410,380,420,410,22,1264,1263
410,380,410,390,420,410,22,1263,1262
410,380,410,390,420,410,22,1263,1262
410,390,400,390,420,410,22,1262,1261
410,390,400,390,420,410,22,1262,1261
400,390,390,390,420,410,22,1261,1260
400,390,390,390,420,410,22,1261,1260
390,390,380,390,420,410,22,1260,1259
390,390,380,390,420,410,22,1260,1259
380,390,370,390,420,410,22,1259,1258
380,390,370,390,420,410,22,1259,1258
370,390,360,390,420,410,22,1258,1257
370,390,360,390,420,410,22,1258,1257
360,390,360,400,420,410,22,1257,1256
360,390,360,400,420,410,22,1257,1256
360,400,360,410,420,410,22,1256,1255
360,400,360,410,420,410,22,1256,1255
360,410,360,420,420,410,22,1255,1254
360,410,360,420,420,410,22,1255,1254
360,420,370,420,420,410,22,1254,1253
360,420,370,420,420,410,22,1254,1253
370,420,380,420,420,410,22,1253,1252
370,420,380,420,420,410,22,1253,1252
380,420,390,420,420,410,22,1252,1251
380,420,390,420,420,410,22,1252,1251
390,420,400,420,420,410,22,1251,1250
390,420,400,420,420,410,22,1251,1250
400,420,410,420,420,410,22,1250,1249
400,420,410,420,420,410,22,1250,1249
410,420,420,420,420,410,22,1249,1248
410,420,420,420,420,410,22,1249,1248
420,420,430,420,420,410,22,1248,1247
420,420,430,420,420,410,22,1248,1247
430,420,430,410,420,410,22,1247,1246
430,420,430,410,420,410,22,1247,1246
430,410,430,400,420,410,22,1246,1245
430,410,430,400,420,410,22,1246,1245
430,400,430,390,420,410,22,1245,1244
430,400,430,390,420,410,22,1245,1244
430,390,430,380,420,410,22,1244,1243
430,390,430,380,420,410,22,1244,1243
430,380,430,370,420,410,22,1243,1242
430,380,430,370,420,410,22,1243,1242
430,370,430,360,420,410,22,1242,1241
430,370,430,360,420,410,22,1242,1241
430,360,430,350,420,410,22,1241,1240
430,360,430,350,420,410,22,1241,1240
430,350,430,340,420,410,22,1240,1239
430,350,430,340,420,410,22,1240,1239
430,340,430,330,420,410,22,1239,1238
430,340,430,330,420,410,22,1239,1238
430,330,430,320,420,410,22,1238,1237
430,330,430,320,420,410,22,1238,1237
430,320,420,320,420,410,22,1237,1236
430,320,420,320,420,410,22,1237,1236
420,320,420,330,420,410,22,1236,1235
420,320,420,330,420,410,22,1236,1235
420,330,420,340,420,410,22,1235,1234
420,330,420,340,420,410,22,1235,1234
420,340,420,350,420,410,22,1234,1233
420,340,420,350,420,410,22,1234,1233
420,350,420,360,420,410,22,1233,1232
420,350,420,360,420,410,22,1233,1232
420,360,420,370,420,410,22,1232,1231
420,360,420,370,420,410,22,1232,1231
420,370,420,380,420,410,22,1231,1230
420,370,420,380,420,410,22,1231,1230
420,380,420,390,420,410,22,1230,1229
420,380,420,390,420,410,22,1230,1229
420,390,420,400,420,410,22,1229,1228
420,390,420,400,420,410,22,1229,1228
420,400,410,400,420,410,22,1228,1227
420,400,410,400,420,410,22,1228,1227
410,400,400,400,420,410,22,1227,1226
410,400,400,400,420,410,22,1227,1226
400,400,390,400,420,410,22,1226,1225
400,400,390,400,420,410,22,1226,1225
390,400,380,400,420,410,22,1225,1224
390,400,380,400,420,410,22,1225,1224
380,400,370,400,420,410,22,1224,1223
380,400,370,400,420,410,22,1224,1223
370,400,360,400,420,410,22,1223,1222
370,400,360,400,420,410,22,1223,1222
360,400,350,400,420,410,22,1222,1221
360,400,350,400,420,410,22,1222,1221
350,400,350,410,420,410,22,1221,1220
350,400,350,410,420,410,22,1221,1220
350,410,360,410,420,410,22,1220,1219
350,410,360,410,420,410,22,1220,1219
360,410,370,410,420,410,22,1219,1218
360,410,370,410,420,410,22,1219,1218
370,410,380,410,420,410,22,1218,1217
370,410,380,410,420,410,22,1218,1217
380,410,390,410,420,410,22,1217,1216
380,410,390,410,420,410,22,1217,1216
390,410,400,410,420,410,22,1216,1215
390,410,400,410,420,410,22,1216,1215
400,410,410,410,420,410,22,1215,1214
400,410,410,410,420,410,22,1215,1214
410,410,420,410,420,410,22,1214,1314
410,410,420,410,420,410,22,1214,1314
420,410,430,410,150,450,23,1314,1313
420,410,430,410,150,450,23,1314,1313
430,410,440,410,150,450,23,1313,1312
430,410,440,410,150,450,23,1313,1312
440,410,450,410,150,450,23,1312,1311
440,410,450,410,150,450,23,1312,1311
450,410,450,400,150,450,23,1311,1310
450,410,450,400,150,450,23,1311,1310
450,400,450,390,150,450,23,1310,1309
450,400,450,390,150,450,23,1310,1309
450,390,450,380,150,450,23,1309,1308
450,390,450,380,150,450,23,1309,1308
450,380,450,370,150,450,23,1308,1307
450,380,450,370,150,450,23,1308,1307
450,370,440,370,150,450,23,1307,1306
450,370,440,370,150,450,23,1307,1306
440,370,430,370,150,450,23,1306,1305
440,370,430,370,150,450,23,1306,1305
430,370,420,370,150,450,23,1305,1304
430,370,420,370,150,450,23,1305,1304
420,370,410,370,150,450,23,1304,1303
420,370,410,370,150,450,23,1304,1303
410,370,400,370,150,450,23,1303,1302
410,370,400,370,150,450,23,1303,1302
400,370,390,370,150,450,23,1302,1301
400,370,390,370,150,450,23,1302,1301
390,370,380,370,150,450,23,1301,1300
390,370,380,370,150,450,23,1301,1300
380,370,370,370,150,450,23,1300,1299
380,370,370,370,150,450,23,1300,1299
370,370,360,370,150,450,23,1299,1298
370,370,360,370,150,450,23,1299,1298
360,370,350,370,150,450,23,1298,1297
360,370,350,370,150,450,23,1298,1297
350,370,340,370,150,450,23,1297,1296
350,370,340,370,150,450,23,1297,1296
340,370,330,370,150,450,23,1296,1295
340,370,330,370,150,450,23,1296,1295
330,370,330,380,150,450,23,1295,1294
330,370,330,380,150,450,23,1295,1294
330,380,330,390,150,450,23,1294,1293
330,380,330,390,150,450,23,1294,1293
330,390,330,400,150,450,23,1293,1292
330,390,330,400,150,450,23,1293,1292
330,400,330,410,150,450,23,1292,1291
330,400,330,410,150,450,23,1292,1291
330,410,330,420,150,450,23,1291,1290
330,410,330,420,150,450,23,1291,1290
330,420,330,430,150,450,23,1290,1289
330,420,330,430,150,450,23,1290,1289
330,430,330,440,150,450,23,1289,1288
330,430,330,440,150,450,23,1289,1288
330,440,330,450,150,450,23,1288,1287
330,440,330,450,150,450,23,1288,1287
330,450,320,450,150,450,23,1287,1286
330,450,320,450,150,450,23,1287,1286
320,450,310,450,150,450,23,1286,1285
320,450,310,450,150,450,23,1286,1285
310,450,300,450,150,450,23,1285,1284
310,450,300,450,150,450,23,1285,1284
300,450,290,450,150,450,23,1284,1283
300,450,290,450,150,450,23,1284,1283
290,450,280,450,150,450,23,1283,1282
290,450,280,450,150,450,23,1283,1282
280,450,270,450,150,450,23,1282,1281
280,450,270,450,150,450,23,1282,1281
270,450,260,450,150,450,23,1281,1280
270,450,260,450,150,450,23,1281,1280
260,450,250,450,150,450,23,1280,1279
260,450,250,450,150,450,23,1280,1279
250,450,240,450,150,450,23,1279,1278
250,450,240,450,150,450,23,1279,1278
240,450,230,450,150,450,23,1278,1277
240,450,230,450,150,450,23,1278,1277
230,450,220,450,150,450,23,1277,1276
230,450,220,450,150,450,23,1277,1276
220,450,210,450,150,450,23,1276,1275
220,450,210,450,150,450,23,1276,1275
210,450,200,450,150,450,23,1275,1274
210,450,200,450,150,450,23,1275,1274
200,450,190,450,150,450,23,1274,1273
200,450,190,450,150,450,23,1274,1273
190,450,180,450,150,450,23,1273,1272
190,450,180,450,150,450,23,1273,1272
180,450,170,450,150,450,23,1272,1271
180,450,170,450,150,450,23,1272,1271
170,450,160,450,150,450,23,1271,1270
170,450,160,450,150,450,23,1271,1270
160,450,150,450,150,450,23,1270,1370
160,450,150,450,150,450,23,1270,1370
150,450,140,450,60,330,24,1370,1369
150,450,140,450,60,330,24,1370,1369
140,450,130,450,60,330,24,1369,1368
140,450,130,450,60,330,24,1369,1368
130,450,120,450,60,330,24,1368,1367
130,450,120,450,60,330,24,1368,1367
120,450,110,450,60,330,24,1367,1366
120,450,110,450,60,330,24,1367,1366
110,450,100,450,60,330,24,1366,1365
110,450,100,450,60,330,24,1366,1365
100,450,90,450,60,330,24,1365,1364
100,450,90,450,60,330,24,1365,1364
90,450,80,450,60,330,24,1364,1363
90,450,80,450,60,330,24,1364,1363
80,450,70,450,60,330,24,1363,1362
80,450,70,450,60,330,24,1363,1362
70,450,70,440,60,330,24,1362,1361
70,450,70,440,60,330,24,1362,1361
70,440,70,430,60,330,24,1361,1360
70,440,70,430,60,330,24,1361,1360
70,430,70,420,60,330,24,1360,1359
70,430,70,420,60,330,24,1360,1359
70,420,70,410,60,330,24,1359,1358
70,420,70,410,60,330,24,1359,1358
70,410,70,400,60,330,24,1358,1357
70,410,70,400,60,330,24,1358,1357
70,400,60,400,60,330,24,1357,1356
70,400,60,400,60,330,24,1357,1356
60,400,60,390,60,330,24,1356,1355
60,400,60,390,60,330,24,1356,1355
60,390,60,380,60,330,24,1355,1354
60,390,60,380,60,330,24,1355,1354
60,380,60,370,60,330,24,1354,1353
60,380,60,370,60,330,24,1354,1353
60,370,60,360,60,330,24,1353,1352
60,370,60,360,60,330,24,1353,1352
60,360,60,350,60,330,24,1352,1351
60,360,60,350,60,330,24,1352,1351
60,350,60,340,60,330,24,1351,1350
60,350,60,340,60,330,24,1351,1350
60,340,60,330,60,330,24,1350,1450
60,340,60,330,60,330,24,1350,1450
60,330,60,320,420,120,25,1450,1449
60,330,60,320,420,120,25,1450,1449
60,320,60,310,420,120,25,1449,1448
60,320,60,310,420,120,25,1449,1448
60,310,60,300,420,120,25,1448,1447
60,310,60,300,420,120,25,1448,1447
60,300,60,290,420,120,25,1447,1446
60,300,60,290,420,120,25,1447,1446
60,290,60,280,420,120,25,1446,1445
60,290,60,280,420,120,25,1446,1445
60,280,60,270,420,120,25,1445,1444
60,280,60,270,420,120,25,1445,1444
60,270,60,260,420,120,25,1444,1443
60,270,60,260,420,120,25,1444,1443
60,260,60,250,420,120,25,1443,1442
60,260,60,250,420,120,25,1443,1442
60,250,60,240,420,120,25,1442,1441
60,250,60,240,420,120,25,1442,1441
60,240,60,230,420,120,25,1441,1440
60,240,60,230,420,120,25,1441,1440
60,230,60,220,420,120,25,1440,1439
60,230,60,220,420,120,25,1440,1439
60,220,60,210,420,120,25,1439,1438
60,220,60,210,420,120,25,1439,1438
60,210,60,200,420,120,25,1438,1437
60,210,60,200,420,120,25,1438,1437
60,200,60,190,420,120,25,1437,1436
60,200,60,190,420,120,25,1437,1436
60,190,60,180,420,120,25,1436,1435
60,190,60,180,420,120,25,1436,1435
60,180,60,170,420,120,25,1435,1434
60,180,60,170,420,120,25,1435,1434
60,170,60,160,420,120,25,1434,1433
60,170,60,160,420,120,25,1434,1433
60,160,60,150,420,120,25,1433,1432
60,160,60,150,420,120,25,1433,1432
60,150,60,140,420,120,25,1432,1431
60,150,60,140,420,120,25,1432,1431
60,140,60,130,420,120,25,1431,1430
60,140,60,130,420,120,25,1431,1430
60,130,60,120,420,120,25,1430,1429
60,130,60,120,420,120,25,1430,1429
60,120,60,110,420,120,25,1429,1428
60,120,60,110,420,120,25,1429,1428
60,110,70,110,420,120,25,1428,1427
60,110,70,110,420,120,25,1428,1427
70,110,80,110,420,120,25,1427,1426
70,110,80,110,420,120,25,1427,1426
80,110,90,110,420,120,25,1426,1425
80,110,90,110,420,120,25,1426,1425
90,110,100,110,420,120,25,1425,1424
90,110,100,110,420,120,25,1425,1424
100,110,110,110,420,120,25,1424,1423
100,110,110,110,420,120,25,1424,1423
110,110,120,110,420,120,25,1423,1422
110,110,120,110,420,120,25,1423,1422
120,110,130,110,420,120,25,1422,1421
120,110,130,110,420,120,25,1422,1421
130,110,140,110,420,120,25,1421,1420
130,110,140,110,420,120,25,1421,1420
140,110,150,110,420,120,25,1420,1419
140,110,150,110,420,120,25,1420,1419
150,110,160,110,420,120,25,1419,1418
150,110,160,110,420,120,25,1419,1418
160,110,170,110,420,120,25,1418,1417
160,110,170,110,420,120,25,1418,1417
170,110,180,110,420,120,25,1417,1416
170,110,180,110,420,120,25,1417,1416
180,110,190,110,420,120,25,1416,1415
180,110,190,110,420,120,25,1416,1415
190,110,200,110,420,120,25,1415,1414
190,110,200,110,420,120,25,1415,1414
200,110,210,110,420,120,25,1414,1413
200,110,210,110,420,120,25,1414,1413
210,110,220,110,420,120,25,1413,1412
210,110,220,110,420,120,25,1413,1412
220,110,230,110,420,120,25,1412,1411
220,110,230,110,420,120,25,1412,1411
230,110,240,110,420,120,25,1411,1410
230,110,240,110,420,120,25,1411,1410
240,110,250,110,420,120,25,1410,1409
240,110,250,110,420,120,25,1410,1409
250,110,260,110,420,120,25,1409,1408
250,110,260,110,420,120,25,1409,1408
260,110,270,110,420,120,25,1408,1407
260,110,270,110,420,120,25,1408,1407
270,110,280,110,420,120,25,1407,1406
270,110,280,110,420,120,25,1407,1406
280,110,290,110,420,120,25,1406,1405
280,110,290,110,420,120,25,1406,1405
290,110,300,110,420,120,25,1405,1404
290,110,300,110,420,120,25,1405,1404
300,110,310,110,420,120,25,1404,1403
300,110,310,110,420,120,25,1404,1403
310,110,320,110,420,120,25,1403,1402
310,110,320,110,420,120,25,1403,1402
320,110,330,110,420,120,25,1402,1401
320,110,330,110,420,120,25,1402,1401
330,110,340,110,420,120,25,1401,1400
330,110,340,110,420,120,25,1401,1400
340,110,350,110,420,120,25,1400,1399
340,110,350,110,420,120,25,1400,1399
350,110,360,110,420,120,25,1399,1398
350,110,360,110,420,120,25,1399,1398
360,110,370,110,420,120,25,1398,1397
360,110,370,110,420,120,25,1398,1397
370,110,380,110,420,120,25,1397,1396
370,110,380,110,420,120,25,1397,1396
380,110,390,110,420,120,25,1396,1395
380,110,390,110,420,120,25,1396,1395
390,110,400,110,420,120,25,1395,1394
390,110,400,110,420,120,25,1395,1394
400,110,410,110,420,120,25,1394,1393
400,110,410,110,420,120,25,1394,1393
410,110,420,110,420,120,25,1393,1392
410,110,420,110,420,120,25,1393,1392
420,110,420,120,420,120,25,1392,1492
420,110,420,120,420,120,25,1392,1492
420,120,420,130,460,200,26,1492,1491
420,120,420,130,460,200,26,1492,1491
420,130,420,140,460,200,26,1491,1490
420,130,420,140,460,200,26,1491,1490
420,140,420,150,460,200,26,1490,1489
420,140,420,150,460,200,26,1490,1489
420,150,420,160,460,200,26,1489,1488
420,150,420,160,460,200,26,1489,1488
420,160,420,170,460,200,26,1488,1487
420,160,420,170,460,200,26,1488,1487
420,170,420,180,460,200,26,1487,1486
420,170,420,180,460,200,26,1487,1486
420,180,420,190,460,200,26,1486,1485
420,180,420,190,460,200,26,1486,1485
420,190,430,190,460,200,26,1485,1484
420,190,430,190,460,200,26,1485,1484
430,190,440,190,460,200,26,1484,1483
430,190,440,190,460,200,26,1484,1483
440,190,450,190,460,200,26,1483,1482
440,190,450,190,460,200,26,1483,1482
450,190,460,190,460,200,26,1482,1481
450,190,460,190,460,200,26,1482,1481
460,190,460,200,460,200,26,1481,1581
460,190,460,200,460,200,26,1481,1581
460,200,460,210,130,280,27,1581,1580
460,200,460,210,130,280,27,1581,1580
460,210,460,220,130,280,27,1580,1579
460,210,460,220,130,280,27,1580,1579
460,220,460,230,130,280,27,1579,1578
460,220,460,230,130,280,27,1579,1578
460,230,460,240,130,280,27,1578,1577
460,230,460,240,130,280,27,1578,1577
460,240,460,250,130,280,27,1577,1576
460,240,460,250,130,280,27,1577,1576
460,250,450,250,130,280,27,1576,1575
460,250,450,250,130,280,27,1576,1575
450,250,440,250,130,280,27,1575,1574
450,250,440,250,130,280,27,1575,1574
440,250,430,250,130,280,27,1574,1573
440,250,430,250,130,280,27,1574,1573
430,250,420,250,130,280,27,1573,1572
430,250,420,250,130,280,27,1573,1572
420,250,410,250,130,280,27,1572,1571
420,250,410,250,130,280,27,1572,1571
410,250,400,250,130,280,27,1571,1570
410,250,400,250,130,280,27,1571,1570
400,250,390,250,130,280,27,1570,1569
400,250,390,250,130,280,27,1570,1569
390,250,380,250,130,280,27,1569,1568
390,250,380,250,130,280,27,1569,1568
380,250,380,260,130,280,27,1568,1567
380,250,380,260,130,280,27,1568,1567
380,260,380,270,130,280,27,1567,1566
380,260,380,270,130,280,27,1567,1566
380,270,380,280,130,280,27,1566,1565
380,270,380,280,130,280,27,1566,1565
380,280,370,280,130,280,27,1565,1564
380,280,370,280,130,280,27,1565,1564
370,280,360,280,130,280,27,1564,1563
370,280,360,280,130,280,27,1564,1563
360,280,350,280,130,280,27,1563,1562
360,280,350,280,130,280,27,1563,1562
350,280,340,280,130,280,27,1562,1561
350,280,340,280,130,280,27,1562,1561
340,280,330,280,130,280,27,1561,1560
340,280,330,280,130,280,27,1561,1560
330,280,320,280,130,280,27,1560,1559
330,280,320,280,130,280,27,1560,1559
320,280,310,280,130,280,27,1559,1558
320,280,310,280,130,280,27,1559,1558
310,280,300,280,130,280,27,1558,1557
310,280,300,280,130,280,27,1558,1557
300,280,290,280,130,280,27,1557,1556
300,280,290,280,130,280,27,1557,1556
290,280,280,280,130,280,27,1556,1555
290,280,280,280,130,280,27,1556,1555
280,280,270,280,130,280,27,1555,1554
280,280,270,280,130,280,27,1555,1554
270,280,260,280,130,280,27,1554,1553
270,280,260,280,130,280,27,1554,1553
260,280,250,280,130,280,27,1553,1552
260,280,250,280,130,280,27,1553,1552
250,280,240,280,130,280,27,1552,1551
250,280,240,280,130,280,27,1552,1551
240,280,230,280,130,280,27,1551,1550
240,280,230,280,130,280,27,1551,1550
230,280,220,280,130,280,27,1550,1549
230,280,220,280,130,280,27,1550,1549
220,280,210,280,130,280,27,1549,1548
220,280,210,280,130,280,27,1549,1548
210,280,200,280,130,280,27,1548,1547
210,280,200,280,130,280,27,1548,1547
200,280,190,280,130,280,27,1547,1546
200,280,190,280,130,280,27,1547,1546
190,280,180,280,130,280,27,1546,1545
190,280,180,280,130,280,27,1546,1545
180,280,170,280,130,280,27,1545,1544
180,280,170,280,130,280,27,1545,1544
170,280,160,280,130,280,27,1544,1543
170,280,160,280,130,280,27,1544,1543
160,280,150,280,130,280,27,1543,1542
160,280,150,280,130,280,27,1543,1542
150,280,140,280,130,280,27,1542,1541
150,280,140,280,130,280,27,1542,1541
140,280,130,280,130,280,27,1541,1641
140,280,130,280,130,280,27,1541,1641
130,280,120,280,290,280,28,1641,1640
130,280,120,280,290,280,28,1641,1640
120,280,110,280,290,280,28,1640,1639
120,280,110,280,290,280,28,1640,1639
110,280,100,280,290,280,28,1639,1638
110,280,100,280,290,280,28,1639,1638
100,280,90,280,290,280,28,1638,1637
100,280,90,280,290,280,28,1638,1637
90,280,80,280,290,280,28,1637,1636
90,280,80,280,290,280,28,1637,1636
80,280,80,290,290,280,28,1636,1635
80,280,80,290,290,280,28,1636,1635
80,290,80,300,290,280,28,1635,1634
80,290,80,300,290,280,28,1635,1634
80,300,80,310,290,280,28,1634,1633
80,300,80,310,290,280,28,1634,1633
80,310,80,320,290,280,28,1633,1632
80,310,80,320,290,280,28,1633,1632
80,320,90,320,290,280,28,1632,1631
80,320,90,320,290,280,28,1632,1631
90,320,100,320,290,280,28,1631,1630
90,320,100,320,290,280,28,1631,1630
100,320,110,320,290,280,28,1630,1629
100,320,110,320,290,280,28,1630,1629
110,320,120,320,290,280,28,1629,1628
110,320,120,320,290,280,28,1629,1628
120,320,130,320,290,280,28,1628,1627
120,320,130,320,290,280,28,1628,1627
130,320,140,320,290,280,28,1627,1626
130,320,140,320,290,280,28,1627,1626
140,320,150,320,290,280,28,1626,1625
140,320,150,320,290,280,28,1626,1625
150,320,160,320,290,280,28,1625,1624
150,320,160,320,290,280,28,1625,1624
160,320,170,320,290,280,28,1624,1623
160,320,170,320,290,280,28,1624,1623
170,320,180,320,290,280,28,1623,1622
170,320,180,320,290,280,28,1623,1622
180,320,190,320,290,280,28,1622,1621
180,320,190,320,290,280,28,1622,1621
190,320,200,320,290,280,28,1621,1620
190,320,200,320,290,280,28,1621,1620
200,320,210,320,290,280,28,1620,1619
200,320,210,320,290,280,28,1620,1619
210,320,220,320,290,280,28,1619,1618
210,320,220,320,290,280,28,1619,1618
220,320,230,320,290,280,28,1618,1617
220,320,230,320,290,280,28,1618,1617
230,320,240,320,290,280,28,1617,1616
230,320,240,320,290,280,28,1617,1616
240,320,250,320,290,280,28,1616,1615
240,320,250,320,290,280,28,1616,1615
250,320,260,320,290,280,28,1615,1614
250,320,260,320,290,280,28,1615,1614
260,320,270,320,290,280,28,1614,1613
260,320,270,320,290,280,28,1614,1613
270,320,280,320,290,280,28,1613,1612
270,320,280,320,290,280,28,1613,1612
280,320,290,320,290,280,28,1612,1611
280,320,290,320,290,280,28,1612,1611
290,320,290,310,290,280,28,1611,1610
290,320,290,310,290,280,28,1611,1610
290,310,290,300,290,280,28,1610,1609
290,310,290,300,290,280,28,1610,1609
290,300,290,290,290,280,28,1609,1608
290,300,290,290,290,280,28,1609,1608
290,290,290,280,290,280,28,1608,1708
290,290,290,280,290,280,28,1608,1708
290,280,290,270,270,350,29,1708,1707
290,280,290,270,270,350,29,1708,1707
290,270,290,260,270,350,29,1707,1706
290,270,290,260,270,350,29,1707,1706
290,260,290,250,270,350,29,1706,1705
290,260,290,250,270,350,29,1706,1705
290,250,290,240,270,350,29,1705,1704
290,250,290,240,270,350,29,1705,1704
290,240,290,230,270,350,29,1704,1703
290,240,290,230,270,350,29,1704,1703
290,230,290,220,270,350,29,1703,1702
290,230,290,220,270,350,29,1703,1702
290,220,290,210,270,350,29,1702,1701
290,220,290,210,270,350,29,1702,1701
290,210,280,210,270,350,29,1701,1700
290,210,280,210,270,350,29,1701,1700
280,210,280,220,270,350,29,1700,1699
280,210,280,220,270,350,29,1700,1699
280,220,280,230,270,350,29,1699,1698
280,220,280,230,270,350,29,1699,1698
280,230,280,240,270,350,29,1698,1697
280,230,280,240,270,350,29,1698,1697
280,240,280,250,270,350,29,1697,1696
280,240,280,250,270,350,29,1697,1696
280,250,280,260,270,350,29,1696,1695
280,250,280,260,270,350,29,1696,1695
280,260,280,270,270,350,29,1695,1694
280,260,280,270,270,350,29,1695,1694
280,270,280,280,270,350,29,1694,1693
280,270,280,280,270,350,29,1694,1693
280,280,280,290,270,350,29,1693,1692
280,280,280,290,270,350,29,1693,1692
280,290,280,300,270,350,29,1692,1691
280,290,280,300,270,350,29,1692,1691
280,300,280,310,270,350,29,1691,1690
280,300,280,310,270,350,29,1691,1690
280,310,280,320,270,350,29,1690,0
280,310,280,320,270,350,29,1690,0
110,50,120,50,70,40,3,-1,-2
110,50,120,50,70,40,3,-1,-2
120,50,130,50,70,40,3,-2,-3
120,50,130,50,70,40,3,-2,-3
130,50,140,50,70,40,3,-3,-4
130,50,140,50,70,40,3,-3,-4
140,50,150,50,70,40,3,-4,-5
140,50,150,50,70,40,3,-4,-5
150,50,160,50,70,40,3,-5,-6
150,50,160,50,70,40,3,-5,-6
160,50,170,50,70,40,3,-6,-7
160,50,170,50,70,40,3,-6,-7
170,50,180,50,70,40,3,-7,-8
170,50,180,50,70,40,3,-7,-8
180,50,190,50,70,40,3,-8,-9
180,50,190,50,70,40,3,-8,-9
190,50,200,50,70,40,3,-9,-10
190,50,200,50,70,40,3,-9,-10
200,50,210,50,70,40,3,-10,-11
200,50,210,50,70,40,3,-10,-11
210,50,210,40,70,40,3,-11,-12
210,50,210,40,70,40,3,-11,-12
210,40,200,40,70,40,3,-12,-13
210,40,200,40,70,40,3,-12,-13
200,40,190,40,70,40,3,-13,-14
200,40,190,40,70,40,3,-13,-14
190,40,180,40,70,40,3,-14,-15
190,40,180,40,70,40,3,-14,-15
180,40,170,40,70,40,3,-15,-16
180,40,170,40,70,40,3,-15,-16
170,40,160,40,70,40,3,-16,-17
170,40,160,40,70,40,3,-16,-17
160,40,150,40,70,40,3,-17,-18
160,40,150,40,70,40,3,-17,-18
150,40,140,40,70,40,3,-18,-19
150,40,140,40,70,40,3,-18,-19
140,40,130,40,70,40,3,-19,-20
140,40,130,40,70,40,3,-19,-20
130,40,120,40,70,40,3,-20,-21
130,40,120,40,70,40,3,-20,-21
120,40,110,40,70,40,3,-21,-22
120,40,110,40,70,40,3,-21,-22
110,40,100,40,70,40,3,-22,-23
110,40,100,40,70,40,3,-22,-23
100,40,90,40,70,40,3,-23,-24
100,40,90,40,70,40,3,-23,-24
90,40,80,40,70,40,3,-24,-25
90,40,80,40,70,40,3,-24,-25
80,40,70,40,70,40,3,-25,75
80,40,70,40,70,40,3,-25,75
70,40,60,40,250,450,4,75,74
70,40,60,40,250,450,4,75,74
60,40,60,50,250,450,4,74,73
60,40,60,50,250,450,4,74,73
60,50,60,60,250,450,4,73,72
60,50,60,60,250,450,4,73,72
60,60,60,70,250,450,4,72,71
60,60,60,70,250,450,4,72,71
60,70,60,80,250,450,4,71,70
60,70,60,80,250,450,4,71,70
60,80,60,90,250,450,4,70,69
60,80,60,90,250,450,4,70,69
60,90,60,100,250,450,4,69,68
60,90,60,100,250,450,4,69,68
60,100,60,110,250,450,4,68,67
60,100,60,110,250,450,4,68,67
60,110,60,120,250,450,4,67,66
60,110,60,120,250,450,4,67,66
60,120,60,130,250,450,4,66,65
60,120,60,130,250,450,4,66,65
60,130,60,140,250,450,4,65,64
60,130,60,140,250,450,4,65,64
60,140,60,150,250,450,4,64,63
60,140,60,150,250,450,4,64,63
60,150,60,160,250,450,4,63,62
60,150,60,160,250,450,4,63,62
60,160,60,170,250,450,4,62,61
60,160,60,170,250,450,4,62,61
60,170,60,180,250,450,4,61,60
60,170,60,180,250,450,4,61,60
60,180,70,180,250,450,4,60,59
60,180,70,180,250,450,4,60,59
70,180,80,180,250,450,4,59,58
70,180,80,180,250,450,4,59,58
80,180,90,180,250,450,4,58,57
80,180,90,180,250,450,4,58,57
90,180,100,180,250,450,4,57,56
90,180,100,180,250,450,4,57,56
100,180,110,180,250,450,4,56,55
100,180,110,180,250,450,4,56,55
110,180,120,180,250,450,4,55,54
110,180,120,180,250,450,4,55,54
120,180,130,180,250,450,4,54,53
120,180,130,180,250,450,4,54,53
130,180,140,180,250,450,4,53,52
130,180,140,180,250,450,4,53,52
140,180,150,180,250,450,4,52,51
140,180,150,180,250,450,4,52,51
150,180,160,180,250,450,4,51,50
150,180,160,180,250,450,4,51,50
160,180,170,180,250,450,4,50,49
160,180,170,180,250,450,4,50,49
170,180,180,180,250,450,4,49,48
170,180,180,180,250,450,4,49,48
180,180,190,180,250,450,4,48,47
180,180,190,180,250,450,4,48,47
190,180,200,180,250,450,4,47,46
190,180,200,180,250,450,4,47,46
200,180,210,180,250,450,4,46,45
200,180,210,180,250,450,4,46,45
210,180,220,180,250,450,4,45,44
210,180,220,180,250,450,4,45,44
220,180,230,180,250,450,4,44,43
220,180,230,180,250,450,4,44,43
230,180,230,190,250,450,4,43,42
230,180,230,190,250,450,4,43,42
230,190,230,200,250,450,4,42,41
230,190,230,200,250,450,4,42,41
230,200,230,210,250,450,4,41,40
230,200,230,210,250,450,4,41,40
230,210,230,220,250,450,4,40,39
230,210,230,220,250,450,4,40,39
230,220,230,230,250,450,4,39,38
230,220,230,230,250,450,4,39,38
230,230,230,240,250,450,4,38,37
230,230,230,240,250,450,4,38,37
230,240,230,250,250,450,4,37,36
230,240,230,250,250,450,4,37,36
230,250,230,260,250,450,4,36,35
230,250,230,260,250,450,4,36,35
230,260,240,260,250,450,4,35,34
230,260,240,260,250,450,4,35,34
240,260,250,260,250,450,4,34,33
240,260,250,260,250,450,4,34,33
250,260,250,270,250,450,4,33,32
250,260,250,270,250,450,4,33,32
250,270,250,280,250,450,4,32,31
250,270,250,280,250,450,4,32,31
250,280,250,290,250,450,4,31,30
250,280,250,290,250,450,4,31,30
250,290,250,300,250,450,4,30,29
250,290,250,300,250,450,4,30,29
250,300,250,310,250,450,4,29,28
250,300,250,310,250,450,4,29,28
250,310,250,320,250,450,4,28,27
250,310,250,320,250,450,4,28,27
250,320,250,330,250,450,4,27,26
250,320,250,330,250,450,4,27,26
250,330,250,340,250,450,4,26,25
250,330,250,340,250,450,4,26,25
250,340,250,350,250,450,4,25,24
250,340,250,350,250,450,4,25,24
250,350,250,360,250,450,4,24,23
250,350,250,360,250,450,4,24,23
250,360,250,370,250,450,4,23,22
250,360,250,370,250,450,4,23,22
250,370,250,380,250,450,4,22,21
250,370,250,380,250,450,4,22,21
250,380,250,390,250,450,4,21,20
250,380,250,390,250,450,4,21,20
250,390,250,400,250,450,4,20,19
250,390,250,400,250,450,4,20,19
250,400,250,410,250,450,4,19,18
250,400,250,410,250,450,4,19,18
250,410,250,420,250,450,4,18,17
250,410,250,420,250,450,4,18,17
250,420,250,430,250,450,4,17,16
250,420,250,430,250,450,4,17,16
250,430,250,440,250,450,4,16,15
250,430,250,440,250,450,4,16,15
250,440,250,450,250,450,4,15,115
250,440,250,450,250,450,4,15,115
250,450,240,450,460,190,5,115,114
250,450,240,450,460,190,5,115,114
240,450,230,450,460,190,5,114,113
240,450,230,450,460,190,5,114,113
230,450,220,450,460,190,5,113,112
230,450,220,450,460,190,5,113,112
220,450,210,450,460,190,5,112,111
220,450,210,450,460,190,5,112,111
210,450,200,450,460,190,5,111,110
210,450,200,450,460,190,5,111,110
200,450,200,440,460,190,5,110,109
200,450,200,440,460,190,5,110,109
200,440,200,430,460,190,5,109,108
200,440,200,430,460,190,5,109,108
200,430,200,420,460,190,5,108,107
200,430,200,420,460,190,5,108,107
200,420,210,420,460,190,5,107,106
200,420,210,420,460,190,5,107,106
210,420,220,420,460,190,5,106,105
210,420,220,420,460,190,5,106,105
220,420,230,420,460,190,5,105,104
220,420,230,420,460,190,5,105,104
230,420,240,420,460,190,5,104,103
230,420,240,420,460,190,5,104,103
240,420,250,420,460,190,5,103,102
240,420,250,420,460,190,5,103,102
250,420,260,420,460,190,5,102,101
250,420,260,420,460,190,5,102,101
260,420,270,420,460,190,5,101,100
260,420,270,420,460,190,5,101,100
270,420,280,420,460,190,5,100,99
270,420,280,420,460,190,5,100,99
280,420,290,420,460,190,5,99,98
280,420,290,420,460,190,5,99,98
290,420,300,420,460,190,5,98,97
290,420,300,420,460,190,5,98,97
300,420,310,420,460,190,5,97,96
300,420,310,420,460,190,5,97,96
310,420,320,420,460,190,5,96,95
310,420,320,420,460,190,5,96,95
320,420,330,420,460,190,5,95,94
320,420,330,420,460,190,5,95,94
330,420,340,420,460,190,5,94,93
330,420,340,420,460,190,5,94,93
340,420,350,420,460,190,5,93,92
340,420,350,420,460,190,5,93,92
350,420,360,420,460,190,5,92,91
350,420,360,420,460,190,5,92,91
360,420,370,420,460,190,5,91,90
360,420,370,420,460,190,5,91,90
370,420,380,420,460,190,5,90,89
370,420,380,420,460,190,5,90,89
380,420,390,420,460,190,5,89,88
380,420,390,420,460,190,5,89,88
390,420,400,420,460,190,5,88,87
390,420,400,420,460,190,5,88,87
400,420,410,420,460,190,5,87,86
400,420,410,420,460,190,5,87,86
410,420,420,420,460,190,5,86,85
410,420,420,420,460,190,5,86,85
420,420,430,420,460,190,5,85,84
420,420,430,420,460,190,5,85,84
430,420,440,420,460,190,5,84,83
430,420,440,420,460,190,5,84,83
440,420,450,420,460,190,5,83,82
440,420,450,420,460,190,5,83,82
450,420,450,410,460,190,5,82,81
450,420,450,410,460,190,5,82,81
450,410,450,400,460,190,5,81,80
450,410,450,400,460,190,5,81,80
450,400,450,390,460,190,5,80,79
450,400,450,390,460,190,5,80,79
450,390,450,380,460,190,5,79,78
450,390,450,380,460,190,5,79,78
450,380,450,370,460,190,5,78,77
450,380,450,370,460,190,5,78,77
450,370,450,360,460,190,5,77,76
450,370,450,360,460,190,5,77,76
450,360,460,360,460,190,5,76,75
450,360,460,360,460,190,5,76,75
460,360,460,350,460,190,5,75,74
460,360,460,350,460,190,5,75,74
460,350,460,340,460,190,5,74,73
460,350,460,340,460,190,5,74,73
460,340,460,330,460,190,5,73,72
460,340,460,330,460,190,5,73,72
460,330,460,320,460,190,5,72,71
460,330,460,320,460,190,5,72,71
460,320,460,310,460,190,5,71,70
460,320,460,310,460,190,5,71,70
460,310,460,300,460,190,5,70,69
460,310,460,300,460,190,5,70,69
460,300,460,290,460,190,5,69,68
460,300,460,290,460,190,5,69,68
460,290,460,280,460,190,5,68,67
460,290,460,280,460,190,5,68,67
460,280,460,270,460,190,5,67,66
460,280,460,270,460,190,5,67,66
460,270,460,260,460,190,5,66,65
460,270,460,260,460,190,5,66,65
460,260,460,250,460,190,5,65,64
460,260,460,250,460,190,5,65,64
460,250,460,240,460,190,5,64,63
460,250,460,240,460,190,5,64,63
460,240,460,230,460,190,5,63,62
460,240,460,230,460,190,5,63,62
460,230,460,220,460,190,5,62,61
460,230,460,220,460,190,5,62,61
460,220,460,210,460,190,5,61,60
460,220,460,210,460,190,5,61,60
460,210,460,200,460,190,5,60,59
460,210,460,200,460,190,5,60,59
460,200,460,190,460,190,5,59,159
460,200,460,190,460,190,5,59,159
460,190,460,180,60,280,6,159,158
460,190,460,180,60,280,6,159,158
460,180,460,170,60,280,6,158,157
460,180,460,170,60,280,6,158,157
460,170,460,160,60,280,6,157,156
460,170,460,160,60,280,6,157,156
460,160,460,150,60,280,6,156,155
460,160,460,150,60,280,6,156,155
460,150,450,150,60,280,6,155,154
460,150,450,150,60,280,6,155,154
450,150,440,150,60,280,6,154,153
450,150,440,150,60,280,6,154,153
440,150,430,150,60,280,6,153,152
440,150,430,150,60,280,6,153,152
430,150,430,160,60,280,6,152,151
430,150,430,160,60,280,6,152,151
430,160,430,170,60,280,6,151,150
430,160,430,170,60,280,6,151,150
430,170,430,180,60,280,6,150,149
430,170,430,180,60,280,6,150,149
430,180,430,190,60,280,6,149,148
430,180,430,190,60,280,6,149,148
430,190,430,200,60,280,6,148,147
430,190,430,200,60,280,6,148,147
430,200,430,210,60,280,6,147,146
430,200,430,210,60,280,6,147,146
430,210,430,220,60,280,6,146,145
430,210,430,220,60,280,6,146,145
430,220,430,230,60,280,6,145,144
430,220,430,230,60,280,6,145,144
430,230,430,240,60,280,6,144,143
430,230,430,240,60,280,6,144,143
430,240,430,250,60,280,6,143,142
430,240,430,250,60,280,6,143,142
430,250,430,260,60,280,6,142,141
430,250,430,260,60,280,6,142,141
430,260,430,270,60,280,6,141,140
430,260,430,270,60,280,6,141,140
430,270,430,280,60,280,6,140,139
430,270,430,280,60,280,6,140,139
430,280,420,280,60,280,6,139,138
430,280,420,280,60,280,6,139,138
420,280,410,280,60,280,6,138,137
420,280,410,280,60,280,6,138,137
410,280,400,280,60,280,6,137,136
410,280,400,280,60,280,6,137,136
400,280,390,280,60,280,6,136,135
400,280,390,280,60,280,6,136,135
390,280,380,280,60,280,6,135,134
390,280,380,280,60,280,6,135,134
380,280,370,280,60,280,6,134,133
380,280,370,280,60,280,6,134,133
370,280,360,280,60,280,6,133,132
370,280,360,280,60,280,6,133,132
360,280,350,280,60,280,6,132,131
360,280,350,280,60,280,6,132,131
350,280,340,280,60,280,6,131,130
350,280,340,280,60,280,6,131,130
340,280,330,280,60,280,6,130,129
340,280,330,280,60,280,6,130,129
330,280,320,280,60,280,6,129,128
330,280,320,280,60,280,6,129,128
320,280,310,280,60,280,6,128,127
320,280,310,280,60,280,6,128,127
310,280,300,280,60,280,6,127,126
310,280,300,280,60,280,6,127,126
300,280,290,280,60,280,6,126,125
300,280,290,280,60,280,6,126,125
290,280,280,280,60,280,6,125,124
290,280,280,280,60,280,6,125,124
280,280,270,280,60,280,6,124,123
280,280,270,280,60,280,6,124,123
270,280,260,280,60,280,6,123,122
270,280,260,280,60,280,6,123,122
260,280,250,280,60,280,6,122,121
260,280,250,280,60,280,6,122,121
250,280,240,280,60,280,6,121,120
250,280,240,280,60,280,6,121,120
240,280,230,280,60,280,6,120,119
240,280,230,280,60,280,6,120,119
230,280,220,280,60,280,6,119,118
230,280,220,280,60,280,6,119,118
220,280,210,280,60,280,6,118,117
220,280,210,280,60,280,6,118,117
210,280,200,280,60,280,6,117,116
210,280,200,280,60,280,6,117,116
200,280,190,280,60,280,6,116,115
200,280,190,280,60,280,6,116,115
190,280,180,280,60,280,6,115,114
190,280,180,280,60,280,6,115,114
180,280,170,280,60,280,6,114,113
180,280,170,280,60,280,6,114,113
170,280,160,280,60,280,6,113,112
170,280,160,280,60,280,6,113,112
160,280,150,280,60,280,6,112,111
160,280,150,280,60,280,6,112,111
150,280,140,280,60,280,6,111,110
150,280,140,280,60,280,6,111,110
140,280,130,280,60,280,6,110,109
140,280,130,280,60,280,6,110,109
130,280,120,280,60,280,6,109,108
130,280,120,280,60,280,6,109,108
120,280,110,280,60,280,6,108,107
120,280,110,280,60,280,6,108,107
110,280,100,280,60,280,6,107,106
110,280,100,280,60,280,6,107,106
100,280,90,280,60,280,6,106,105
100,280,90,280,60,280,6,106,105
90,280,80,280,60,280,6,105,104
90,280,80,280,60,280,6,105,104
80,280,70,280,60,280,6,104,103
80,280,70,280,60,280,6,104,103
70,280,60,280,60,280,6,103,203
70,280,60,280,60,280,6,103,203
60,280,50,280,160,60,7,203,202
60,280,50,280,160,60,7,203,202
50,280,40,280,160,60,7,202,201
50,280,40,280,160,60,7,202,201
40,280,30,280,160,60,7,201,200
40,280,30,280,160,60,7,201,200
30,280,30,290,160,60,7,200,199
30,280,30,290,160,60,7,200,199
30,290,30,300,160,60,7,199,198
30,290,30,300,160,60,7,199,198
30,300,30,310,160,60,7,198,197
30,300,30,310,160,60,7,198,197
30,310,40,310,160,60,7,197,196
30,310,40,310,160,60,7,197,196
40,310,50,310,160,60,7,196,195
40,310,50,310,160,60,7,196,195
50,310,60,310,160,60,7,195,194
50,310,60,310,160,60,7,195,194
60,310,70,310,160,60,7,194,193
60,310,70,310,160,60,7,194,193
70,310,80,310,160,60,7,193,192
70,310,80,310,160,60,7,193,192
80,310,90,310,160,60,7,192,191
80,310,90,310,160,60,7,192,191
90,310,100,310,160,60,7,191,190
90,310,100,310,160,60,7,191,190
100,310,110,310,160,60,7,190,189
100,310,110,310,160,60,7,190,189
110,310,120,310,160,60,7,189,188
110,310,120,310,160,60,7,189,188
120,310,130,310,160,60,7,188,187
120,310,130,310,160,60,7,188,187
130,310,140,310,160,60,7,187,186
130,310,140,310,160,60,7,187,186
140,310,150,310,160,60,7,186,185
140,310,150,310,160,60,7,186,185
150,310,160,310,160,60,7,185,184
150,310,160,310,160,60,7,185,184
160,310,160,300,160,60,7,184,183
160,310,160,300,160,60,7,184,183
160,300,160,290,160,60,7,183,182
160,300,160,290,160,60,7,183,182
160,290,160,280,160,60,7,182,181
160,290,160,280,160,60,7,182,181
160,280,160,270,160,60,7,181,180
160,280,160,270,160,60,7,181,180
160,270,160,260,160,60,7,180,179
160,270,160,260,160,60,7,180,179
160,260,160,250,160,60,7,179,178
160,260,160,250,160,60,7,179,178
160,250,160,240,160,60,7,178,177
160,250,160,240,160,60,7,178,177
160,240,160,230,160,60,7,177,176
160,240,160,230,160,60,7,177,176
160,230,160,220,160,60,7,176,175
160,230,160,220,160,60,7,176,175
160,220,160,210,160,60,7,175,174
160,220,160,210,160,60,7,175,174
160,210,160,200,160,60,7,174,173
160,210,160,200,160,60,7,174,173
160,200,160,190,160,60,7,173,172
160,200,160,190,160,60,7,173,172
160,190,160,180,160,60,7,172,171
160,190,160,180,160,60,7,172,171
160,180,160,170,160,60,7,171,170
160,180,160,170,160,60,7,171,170
160,170,160,160,160,60,7,170,169
160,170,160,160,160,60,7,170,169
160,160,160,150,160,60,7,169,168
160,160,160,150,160,60,7,169,168
160,150,160,140,160,60,7,168,167
160,150,160,140,160,60,7,168,167
160,140,160,130,160,60,7,167,166
160,140,160,130,160,60,7,167,166
160,130,160,120,160,60,7,166,165
160,130,160,120,160,60,7,166,165
160,120,160,110,160,60,7,165,164
160,120,160,110,160,60,7,165,164
160,110,160,100,160,60,7,164,163
160,110,160,100,160,60,7,164,163
160,100,160,90,160,60,7,163,162
160,100,160,90,160,60,7,163,162
160,90,160,80,160,60,7,162,161
160,90,160,80,160,60,7,162,161
160,80,160,70,160,60,7,161,160
160,80,160,70,160,60,7,161,160
160,70,160,60,160,60,7,160,260
160,70,160,60,160,60,7,160,260
160,60,160,50,170,260,8,260,259
160,60,160,50,170,260,8,260,259
160,50,160,40,170,260,8,259,258
160,50,160,40,170,260,8,259,258
160,40,170,40,170,260,8,258,257
160,40,170,40,170,260,8,258,257
170,40,180,40,170,260,8,257,256
170,40,180,40,170,260,8,257,256
180,40,190,40,170,260,8,256,255
180,40,190,40,170,260,8,256,255
190,40,200,40,170,260,8,255,254
190,40,200,40,170,260,8,255,254
200,40,200,50,170,260,8,254,253
200,40,200,50,170,260,8,254,253
200,50,200,60,170,260,8,253,252
200,50,200,60,170,260,8,253,252
200,60,200,70,170,260,8,252,251
200,60,200,70,170,260,8,252,251
200,70,200,80,170,260,8,251,250
200,70,200,80,170,260,8,251,250
200,80,200,90,170,260,8,250,249
200,80,200,90,170,260,8,250,249
200,90,200,100,170,260,8,249,248
200,90,200,100,170,260,8,249,248
200,100,190,100,170,260,8,248,247
200,100,190,100,170,260,8,248,247
190,100,180,100,170,260,8,247,246
190,100,180,100,170,260,8,247,246
180,100,180,110,170,260,8,246,245
180,100,180,110,170,260,8,246,245
180,110,180,120,170,260,8,245,244
180,110,180,120,170,260,8,245,244
180,120,180,130,170,260,8,244,243
180,120,180,130,170,260,8,244,243
180,130,180,140,170,260,8,243,242
180,130,180,140,170,260,8,243,242
180,140,180,150,170,260,8,242,241
180,140,180,150,170,260,8,242,241
180,150,180,160,170,260,8,241,240
180,150,180,160,170,260,8,241,240
180,160,180,170,170,260,8,240,239
180,160,180,170,170,260,8,240,239
180,170,180,180,170,260,8,239,238
180,170,180,180,170,260,8,239,238
180,180,180,190,170,260,8,238,237
180,180,180,190,170,260,8,238,237
180,190,180,200,170,260,8,237,236
180,190,180,200,170,260,8,237,236
180,200,180,210,170,260,8,236,235
180,200,180,210,170,260,8,236,235
180,210,170,210,170,260,8,235,234
180,210,170,210,170,260,8,235,234
170,210,170,220,170,260,8,234,233
170,210,170,220,170,260,8,234,233
170,220,170,230,170,260,8,233,232
170,220,170,230,170,260,8,233,232
170,230,170,240,170,260,8,232,231
170,230,170,240,170,260,8,232,231
170,240,170,250,170,260,8,231,230
170,240,170,250,170,260,8,231,230
170,250,170,260,170,260,8,230,330
170,250,170,260,170,260,8,230,330
170,260,170,270,390,400,9,330,329
170,260,170,270,390,400,9,330,329
170,270,170,280,390,400,9,329,328
170,270,170,280,390,400,9,329,328
170,280,170,290,390,400,9,328,327
170,280,170,290,390,400,9,328,327
170,290,170,300,390,400,9,327,326
170,290,170,300,390,400,9,327,326
170,300,170,310,390,400,9,326,325
170,300,170,310,390,400,9,326,325
170,310,170,320,390,400,9,325,324
170,310,170,320,390,400,9,325,324
170,320,170,330,390,400,9,324,323
170,320,170,330,390,400,9,324,323
170,330,170,340,390,400,9,323,322
170,330,170,340,390,400,9,323,322
170,340,170,350,390,400,9,322,321
170,340,170,350,390,400,9,322,321
170,350,170,360,390,400,9,321,320
170,350,170,360,390,400,9,321,320
170,360,170,370,390,400,9,320,319
170,360,170,370,390,400,9,320,319
170,370,170,380,390,400,9,319,318
170,370,170,380,390,400,9,319,318
170,380,170,390,390,400,9,318,317
170,380,170,390,390,400,9,318,317
170,390,180,390,390,400,9,317,316
170,390,180,390,390,400,9,317,316
180,390,190,390,390,400,9,316,315
180,390,190,390,390,400,9,316,315
190,390,200,390,390,400,9,315,314
190,390,200,390,390,400,9,315,314
200,390,210,390,390,400,9,314,313
200,390,210,390,390,400,9,314,313
210,390,220,390,390,400,9,313,312
210,390,220,390,390,400,9,313,312
220,390,230,390,390,400,9,312,311
220,390,230,390,390,400,9,312,311
230,390,240,390,390,400,9,311,310
230,390,240,390,390,400,9,311,310
240,390,250,390,390,400,9,310,309
240,390,250,390,390,400,9,310,309
250,390,260,390,390,400,9,309,308
250,390,260,390,390,400,9,309,308
260,390,270,390,390,400,9,308,307
260,390,270,390,390,400,9,308,307
270,390,280,390,390,400,9,307,306
270,390,280,390,390,400,9,307,306
280,390,290,390,390,400,9,306,305
280,390,290,390,390,400,9,306,305
290,390,300,390,390,400,9,305,304
290,390,300,390,390,400,9,305,304
300,390,310,390,390,400,9,304,303
300,390,310,390,390,400,9,304,303
310,390,320,390,390,400,9,303,302
310,390,320,390,390,400,9,303,302
320,390,330,390,390,400,9,302,301
320,390,330,390,390,400,9,302,301
330,390,340,390,390,400,9,301,300
330,390,340,390,390,400,9,301,300
340,390,350,390,390,400,9,300,299
340,390,350,390,390,400,9,300,299
350,390,360,390,390,400,9,299,298
350,390,360,390,390,400,9,299,298
360,390,370,390,390,400,9,298,297
360,390,370,390,390,400,9,298,297
370,390,380,390,390,400,9,297,296
370,390,380,390,390,400,9,297,296
380,390,390,390,390,400,9,296,295
380,390,390,390,390,400,9,296,295
390,390,390,400,390,400,9,295,395
390,390,390,400,390,400,9,295,395
390,400,390,410,20,60,10,395,394
390,400,390,410,20,60,10,395,394
390,410,390,420,20,60,10,394,393
390,410,390,420,20,60,10,394,393
390,420,390,430,20,60,10,393,392
390,420,390,430,20,60,10,393,392
390,430,390,440,20,60,10,392,391
390,430,390,440,20,60,10,392,391
390,440,380,440,20,60,10,391,390
390,440,380,440,20,60,10,391,390
380,440,370,440,20,60,10,390,389
380,440,370,440,20,60,10,390,389
370,440,360,440,20,60,10,389,388
370,440,360,440,20,60,10,389,388
360,440,350,440,20,60,10,388,387
360,440,350,440,20,60,10,388,387
350,440,340,440,20,60,10,387,386
350,440,340,440,20,60,10,387,386
340,440,330,440,20,60,10,386,385
340,440,330,440,20,60,10,386,385
330,440,320,440,20,60,10,385,384
330,440,320,440,20,60,10,385,384
320,440,310,440,20,60,10,384,383
320,440,310,440,20,60,10,384,383
310,440,300,440,20,60,10,383,382
310,440,300,440,20,60,10,383,382
300,440,290,440,20,60,10,382,381
300,440,290,440,20,60,10,382,381
290,440,280,440,20,60,10,381,380
290,440,280,440,20,60,10,381,380
280,440,270,440,20,60,10,380,379
280,440,270,440,20,60,10,380,379
270,440,260,440,20,60,10,379,378
270,440,260,440,20,60,10,379,378
260,440,250,440,20,60,10,378,377
260,440,250,440,20,60,10,378,377
250,440,240,440,20,60,10,377,376
250,440,240,440,20,60,10,377,376
240,440,230,440,20,60,10,376,375
240,440,230,440,20,60,10,376,375
230,440,220,440,20,60,10,375,374
230,440,220,440,20,60,10,375,374
220,440,210,440,20,60,10,374,373
220,440,210,440,20,60,10,374,373
210,440,200,440,20,60,10,373,372
210,440,200,440,20,60,10,373,372
200,440,190,440,20,60,10,372,371
200,440,190,440,20,60,10,372,371
190,440,180,440,20,60,10,371,370
190,440,180,440,20,60,10,371,370
180,440,170,440,20,60,10,370,369
180,440,170,440,20,60,10,370,369
170,440,160,440,20,60,10,369,368
170,440,160,440,20,60,10,369,368
160,440,150,440,20,60,10,368,367
160,440,150,440,20,60,10,368,367
150,440,140,440,20,60,10,367,366
150,440,140,440,20,60,10,367,366
140,440,130,440,20,60,10,366,365
140,440,130,440,20,60,10,366,365
130,440,120,440,20,60,10,365,364
130,440,120,440,20,60,10,365,364
120,440,110,440,20,60,10,364,363
120,440,110,440,20,60,10,364,363
110,440,100,440,20,60,10,363,362
110,440,100,440,20,60,10,363,362
100,440,90,440,20,60,10,362,361
100,440,90,440,20,60,10,362,361
90,440,80,440,20,60,10,361,360
90,440,80,440,20,60,10,361,360
80,440,70,440,20,60,10,360,359
80,440,70,440,20,60,10,360,359
70,440,60,440,20,60,10,359,358
70,440,60,440,20,60,10,359,358
60,440,50,440,20,60,10,358,357
60,440,50,440,20,60,10,358,357
50,440,40,440,20,60,10,357,356
50,440,40,440,20,60,10,357,356
40,440,30,440,20,60,10,356,355
40,440,30,440,20,60,10,356,355
30,440,20,440,20,60,10,355,354
30,440,20,440,20,60,10,355,354
20,440,20,430,20,60,10,354,353
20,440,20,430,20,60,10,354,353
20,430,20,420,20,60,10,353,352
20,430,20,420,20,60,10,353,352
20,420,20,410,20,60,10,352,351
20,420,20,410,20,60,10,352,351
20,410,20,400,20,60,10,351,350
20,410,20,400,20,60,10,351,350
20,400,20,390,20,60,10,350,349
20,400,20,390,20,60,10,350,349
20,390,20,380,20,60,10,349,348
20,390,20,380,20,60,10,349,348
20,380,20,370,20,60,10,348,347
20,380,20,370,20,60,10,348,347
20,370,20,360,20,60,10,347,346
20,370,20,360,20,60,10,347,346
20,360,20,350,20,60,10,346,345
20,360,20,350,20,60,10,346,345
20,350,20,340,20,60,10,345,344
20,350,20,340,20,60,10,345,344
20,340,20,330,20,60,10,344,343
20,340,20,330,20,60,10,344,343
20,330,20,320,20,60,10,343,342
20,330,20,320,20,60,10,343,342
20,320,20,310,20,60,10,342,341
20,320,20,310,20,60,10,342,341
20,310,20,300,20,60,10,341,340
20,310,20,300,20,60,10,341,340
20,300,20,290,20,60,10,340,339
20,300,20,290,20,60,10,340,339
20,290,20,280,20,60,10,339,338
20,290,20,280,20,60,10,339,338
20,280,20,270,20,60,10,338,337
20,280,20,270,20,60,10,338,337
20,270,20,260,20,60,10,337,336
20,270,20,260,20,60,10,337,336
20,260,20,250,20,60,10,336,335
20,260,20,250,20,60,10,336,335
20,250,20,240,20,60,10,335,334
20,250,20,240,20,60,10,335,334
20,240,20,230,20,60,10,334,333
20,240,20,230,20,60,10,334,333
20,230,20,220,20,60,10,333,332
20,230,20,220,20,60,10,333,332
20,220,20,210,20,60,10,332,331
20,220,20,210,20,60,10,332,331
20,210,20,200,20,60,10,331,330
20,210,20,200,20,60,10,331,330
20,200,20,190,20,60,10,330,329
20,200,20,190,20,60,10,330,329
20,190,20,180,20,60,10,329,328
20,190,20,180,20,60,10,329,328
20,180,20,170,20,60,10,328,327
20,180,20,170,20,60,10,328,327
20,170,20,160,20,60,10,327,326
20,170,20,160,20,60,10,327,326
20,160,20,150,20,60,10,326,325
20,160,20,150,20,60,10,326,325
20,150,20,140,20,60,10,325,324
20,150,20,140,20,60,10,325,324
20,140,20,130,20,60,10,324,323
20,140,20,130,20,60,10,324,323
20,130,20,120,20,60,10,323,322
20,130,20,120,20,60,10,323,322
20,120,20,110,20,60,10,322,321
20,120,20,110,20,60,10,322,321
20,110,20,100,20,60,10,321,320
20,110,20,100,20,60,10,321,320
20,100,20,90,20,60,10,320,319
20,100,20,90,20,60,10,320,319
20,90,20,80,20,60,10,319,318
20,90,20,80,20,60,10,319,318
20,80,20,70,20,60,10,318,317
20,80,20,70,20,60,10,318,317
20,70,20,60,20,60,10,317,417
20,70,20,60,20,60,10,317,417
20,60,20,50,250,10,11,417,416
20,60,20,50,250,10,11,417,416
20,50,20,40,250,10,11,416,415
20,50,20,40,250,10,11,416,415
20,40,30,40,250,10,11,415,414
20,40,30,40,250,10,11,415,414
30,40,40,40,250,10,11,414,413
30,40,40,40,250,10,11,414,413
40,40,50,40,250,10,11,413,412
40,40,50,40,250,10,11,413,412
50,40,60,40,250,10,11,412,411
50,40,60,40,250,10,11,412,411
60,40,70,40,250,10,11,411,410
60,40,70,40,250,10,11,411,410
70,40,80,40,250,10,11,410,409
70,40,80,40,250,10,11,410,409
80,40,90,40,250,10,11,409,408
80,40,90,40,250,10,11,409,408
90,40,100,40,250,10,11,408,407
90,40,100,40,250,10,11,408,407
100,40,100,30,250,10,11,407,406
100,40,100,30,250,10,11,407,406
100,30,100,20,250,10,11,406,405
100,30,100,20,250,10,11,406,405
100,20,100,10,250,10,11,405,404
100,20,100,10,250,10,11,405,404
100,10,110,10,250,10,11,404,403
100,10,110,10,250,10,11,404,403
110,10,120,10,250,10,11,403,402
110,10,120,10,250,10,11,403,402
120,10,130,10,250,10,11,402,401
120,10,130,10,250,10,11,402,401
130,10,140,10,250,10,11,401,400
130,10,140,10,250,10,11,401,400
140,10,150,10,250,10,11,400,399
140,10,150,10,250,10,11,400,399
150,10,160,10,250,10,11,399,398
150,10,160,10,250,10,11,399,398
160,10,170,10,250,10,11,398,397
160,10,170,10,250,10,11,398,397
170,10,180,10,250,10,11,397,396
170,10,180,10,250,10,11,397,396
180,10,190,10,250,10,11,396,395
180,10,190,10,250,10,11,396,395
190,10,200,10,250,10,11,395,394
190,10,200,10,250,10,11,395,394
200,10,210,10,250,10,11,394,393
200,10,210,10,250,10,11,394,393
210,10,220,10,250,10,11,393,392
210,10,220,10,250,10,11,393,392
220,10,230,10,250,10,11,392,391
220,10,230,10,250,10,11,392,391
230,10,240,10,250,10,11,391,390
230,10,240,10,250,10,11,391,390
240,10,250,10,250,10,11,390,490
240,10,250,10,250,10,11,390,490
250,10,260,10,440,80,12,490,489
250,10,260,10,440,80,12,490,489
260,10,270,10,440,80,12,489,488
260,10,270,10,440,80,12,489,488
270,10,280,10,440,80,12,488,487
270,10,280,10,440,80,12,488,487
280,10,290,10,440,80,12,487,486
280,10,290,10,440,80,12,487,486
290,10,300,10,440,80,12,486,485
290,10,300,10,440,80,12,486,485
300,10,310,10,440,80,12,485,484
300,10,310,10,440,80,12,485,484
310,10,320,10,440,80,12,484,483
310,10,320,10,440,80,12,484,483
320,10,330,10,440,80,12,483,482
320,10,330,10,440,80,12,483,482
330,10,340,10,440,80,12,482,481
330,10,340,10,440,80,12,482,481
340,10,350,10,440,80,12,481,480
340,10,350,10,440,80,12,481,480
350,10,360,10,440,80,12,480,479
350,10,360,10,440,80,12,480,479
360,10,370,10,440,80,12,479,478
360,10,370,10,440,80,12,479,478
370,10,380,10,440,80,12,478,477
370,10,380,10,440,80,12,478,477
380,10,390,10,440,80,12,477,476
380,10,390,10,440,80,12,477,476
390,10,400,10,440,80,12,476,475
390,10,400,10,440,80,12,476,475
400,10,410,10,440,80,12,475,474
400,10,410,10,440,80,12,475,474
410,10,420,10,440,80,12,474,473
410,10,420,10,440,80,12,474,473
420,10,430,10,440,80,12,473,472
420,10,430,10,440,80,12,473,472
430,10,440,10,440,80,12,472,471
430,10,440,10,440,80,12,472,471
440,10,440,20,440,80,12,471,470
440,10,440,20,440,80,12,471,470
440,20,440,30,440,80,12,470,469
440,20,440,30,440,80,12,470,469
440,30,440,40,440,80,12,469,468
440,30,440,40,440,80,12,469,468
440,40,440,50,440,80,12,468,467
440,40,440,50,440,80,12,468,467
440,50,440,60,440,80,12,467,466
440,50,440,60,440,80,12,467,466
440,60,440,70,440,80,12,466,465
440,60,440,70,440,80,12,466,465
440,70,440,80,440,80,12,465,565
440,70,440,80,440,80,12,465,565
440,80,440,90,410,310,13,565,564
440,80,440,90,410,310,13,565,564
440,90,440,100,410,310,13,564,563
440,90,440,100,410,310,13,564,563
440,100,440,110,410,310,13,563,562
440,100,440,110,410,310,13,563,562
440,110,440,120,410,310,13,562,561
440,110,440,120,410,310,13,562,561
440,120,440,130,410,310,13,561,560
440,120,440,130,410,310,13,561,560
440,130,440,140,410,310,13,560,559
440,130,440,140,410,310,13,560,559
440,140,440,150,410,310,13,559,558
440,140,440,150,410,310,13,559,558
440,150,440,160,410,310,13,558,557
440,150,440,160,410,310,13,558,557
440,160,440,170,410,310,13,557,556
440,160,440,170,410,310,13,557,556
440,170,440,180,410,310,13,556,555
440,170,440,180,410,310,13,556,555
440,180,440,190,410,310,13,555,554
440,180,440,190,410,310,13,555,554
440,190,440,200,410,310,13,554,553
440,190,440,200,410,310,13,554,553
440,200,440,210,410,310,13,553,552
440,200,440,210,410,310,13,553,552
440,210,440,220,410,310,13,552,551
440,210,440,220,410,310,13,552,551
440,220,440,230,410,310,13,551,550
440,220,440,230,410,310,13,551,550
440,230,440,240,410,310,13,550,549
440,230,440,240,410,310,13,550,549
440,240,440,250,410,310,13,549,548
440,240,440,250,410,310,13,549,548
440,250,440,260,410,310,13,548,547
440,250,440,260,410,310,13,548,547
440,260,440,270,410,310,13,547,546
440,260,440,270,410,310,13,547,546
440,270,440,280,410,310,13,546,545
440,270,440,280,410,310,13,546,545
440,280,440,290,410,310,13,545,544
440,280,440,290,410,310,13,545,544
440,290,440,300,410,310,13,544,543
440,290,440,300,410,310,13,544,543
440,300,440,310,410,310,13,543,542
440,300,440,310,410,310,13,543,542
440,310,430,310,410,310,13,542,541
440,310,430,310,410,310,13,542,541
430,310,420,310,410,310,13,541,540
430,310,420,310,410,310,13,541,540
420,310,410,310,410,310,13,540,640
420,310,410,310,410,310,13,540,640
410,310,400,310,410,210,14,640,639
410,310,400,310,410,210,14,640,639
400,310,390,310,410,210,14,639,638
400,310,390,310,410,210,14,639,638
390,310,380,310,410,210,14,638,637
390,310,380,310,410,210,14,638,637
380,310,370,310,410,210,14,637,636
380,310,370,310,410,210,14,637,636
370,310,360,310,410,210,14,636,635
370,310,360,310,410,210,14,636,635
360,310,360,300,410,210,14,635,634
360,310,360,300,410,210,14,635,634
360,300,360,290,410,210,14,634,633
360,300,360,290,410,210,14,634,633
360,290,360,280,410,210,14,633,632
360,290,360,280,410,210,14,633,632
360,280,370,280,410,210,14,632,631
360,280,370,280,410,210,14,632,631
370,280,380,280,410,210,14,631,630
370,280,380,280,410,210,14,631,630
380,280,390,280,410,210,14,630,629
380,280,390,280,410,210,14,630,629
390,280,400,280,410,210,14,629,628
390,280,400,280,410,210,14,629,628
400,280,410,280,410,210,14,628,627
400,280,410,280,410,210,14,628,627
410,280,420,280,410,210,14,627,626
410,280,420,280,410,210,14,627,626
420,280,420,270,410,210,14,626,625
420,280,420,270,410,210,14,626,625
420,270,420,260,410,210,14,625,624
420,270,420,260,410,210,14,625,624
420,260,420,250,410,210,14,624,623
420,260,420,250,410,210,14,624,623
420,250,420,240,410,210,14,623,622
420,250,420,240,410,210,14,623,622
420,240,420,230,410,210,14,622,621
420,240,420,230,410,210,14,622,621
420,230,420,220,410,210,14,621,620
420,230,420,220,410,210,14,621,620
420,220,410,220,410,210,14,620,619
420,220,410,220,410,210,14,620,619
410,220,400,220,410,210,14,619,618
410,220,400,220,410,210,14,619,618
400,220,390,220,410,210,14,618,617
400,220,390,220,410,210,14,618,617
390,220,380,220,410,210,14,617,616
390,220,380,220,410,210,14,617,616
380,220,370,220,410,210,14,616,615
380,220,370,220,410,210,14,616,615
370,220,360,220,410,210,14,615,614
370,220,360,220,410,210,14,615,614
360,220,360,210,410,210,14,614,613
360,220,360,210,410,210,14,614,613
360,210,360,200,410,210,14,613,612
360,210,360,200,410,210,14,613,612
360,200,370,200,410,210,14,612,611
360,200,370,200,410,210,14,612,611
370,200,380,200,410,210,14,611,610
370,200,380,200,410,210,14,611,610
380,200,390,200,410,210,14,610,609
380,200,390,200,410,210,14,610,609
390,200,400,200,410,210,14,609,608
390,200,400,200,410,210,14,609,608
400,200,410,200,410,210,14,608,607
400,200,410,200,410,210,14,608,607
410,200,420,200,410,210,14,607,606
410,200,420,200,410,210,14,607,606
420,200,430,200,410,210,14,606,605
420,200,430,200,410,210,14,606,605
430,200,440,200,410,210,14,605,604
430,200,440,200,410,210,14,605,604
440,200,450,200,410,210,14,604,603
440,200,450,200,410,210,14,604,603
450,200,450,210,410,210,14,603,602
450,200,450,210,410,210,14,603,602
450,210,440,210,410,210,14,602,601
450,210,440,210,410,210,14,602,601
440,210,430,210,410,210,14,601,600
440,210,430,210,410,210,14,601,600
430,210,420,210,410,210,14,600,599
430,210,420,210,410,210,14,600,599
420,210,410,210,410,210,14,599,699
420,210,410,210,410,210,14,599,699
410,210,400,210,70,470,15,699,698
410,210,400,210,70,470,15,699,698
400,210,400,220,70,470,15,698,697
400,210,400,220,70,470,15,698,697
400,220,400,230,70,470,15,697,696
400,220,400,230,70,470,15,697,696
400,230,400,240,70,470,15,696,695
400,230,400,240,70,470,15,696,695
400,240,400,250,70,470,15,695,694
400,240,400,250,70,470,15,695,694
400,250,400,260,70,470,15,694,693
400,250,400,260,70,470,15,694,693
400,260,400,270,70,470,15,693,692
400,260,400,270,70,470,15,693,692
400,270,400,280,70,470,15,692,691
400,270,400,280,70,470,15,692,691
400,280,400,290,70,470,15,691,690
400,280,400,290,70,470,15,691,690
400,290,400,300,70,470,15,690,689
400,290,400,300,70,470,15,690,689
400,300,400,310,70,470,15,689,688
400,300,400,310,70,470,15,689,688
400,310,400,320,70,470,15,688,687
400,310,400,320,70,470,15,688,687
400,320,400,330,70,470,15,687,686
400,320,400,330,70,470,15,687,686
400,330,400,340,70,470,15,686,685
400,330,400,340,70,470,15,686,685
400,340,400,350,70,470,15,685,684
400,340,400,350,70,470,15,685,684
400,350,400,360,70,470,15,684,683
400,350,400,360,70,470,15,684,683
400,360,400,370,70,470,15,683,682
400,360,400,370,70,470,15,683,682
400,370,400,380,70,470,15,682,681
400,370,400,380,70,470,15,682,681
400,380,400,390,70,470,15,681,680
400,380,400,390,70,470,15,681,680
400,390,400,400,70,470,15,680,679
400,390,400,400,70,470,15,680,679
400,400,400,410,70,470,15,679,678
400,400,400,410,70,470,15,679,678
400,410,400,420,70,470,15,678,677
400,410,400,420,70,470,15,678,677
400,420,400,430,70,470,15,677,676
400,420,400,430,70,470,15,677,676
400,430,400,440,70,470,15,676,675
400,430,400,440,70,470,15,676,675
400,440,400,450,70,470,15,675,674
400,440,400,450,70,470,15,675,674
400,450,400,460,70,470,15,674,673
400,450,400,460,70,470,15,674,673
400,460,400,470,70,470,15,673,672
400,460,400,470,70,470,15,673,672
400,470,390,470,70,470,15,672,0
400,470,390,470,70,470,15,672,0
390,470,380,470,70,470,15,671,0
390,470,380,470,70,470,15,671,0
380,470,370,470,70,470,15,670,0
380,470,370,470,70,470,15,670,0
370,470,360,470,70,470,15,669,0
370,470,360,470,70,470,15,669,0
360,470,350,470,70,470,15,668,0
360,470,350,470,70,470,15,668,0
350,470,340,470,70,470,15,667,0
350,470,340,470,70,470,15,667,0
340,470,330,470,70,470,15,666,0
340,470,330,470,70,470,15,666,0
330,470,320,470,70,470,15,665,0
330,470,320,470,70,470,15,665,0
320,470,310,470,70,470,15,664,0
320,470,310,470,70,470,15,664,0
310,470,300,470,70,470,15,663,0
310,470,300,470,70,470,15,663,0
300,470,290,470,70,470,15,662,0
300,470,290,470,70,470,15,662,0
290,470,280,470,70,470,15,661,0
290,470,280,470,70,470,15,661,0
280,470,270,470,70,470,15,660,0
280,470,270,470,70,470,15,660,0
270,470,260,470,70,470,15,659,0
270,470,260,470,70,470,15,659,0
260,470,250,470,70,470,15,658,0
260,470,250,470,70,470,15,658,0
250,470,240,470,70,470,15,657,0
250,470,240,470,70,470,15,657,0
240,470,230,470,70,470,15,656,0
240,470,230,470,70,470,15,656,0
230,470,220,470,70,470,15,655,0
230,470,220,470,70,470,15,655,0
220,470,210,470,70,470,15,654,0
220,470,210,470,70,470,15,654,0
210,470,200,470,70,470,15,653,0
210,470,200,470,70,470,15,653,0
200,470,190,470,70,470,15,652,0
200,470,190,470,70,470,15,652,0
190,470,180,470,70,470,15,651,0
190,470,180,470,70,470,15,651,0
180,470,170,470,70,470,15,650,0
180,470,170,470,70,470,15,650,0
170,470,160,470,70,470,15,649,0
170,470,160,470,70,470,15,649,0
160,470,150,470,70,470,15,648,0
160,470,150,470,70,470,15,648,0
150,470,140,470,70,470,15,647,0
150,470,140,470,70,470,15,647,0
140,470,130,470,70,470,15,646,0
140,470,130,470,70,470,15,646,0
130,470,120,470,70,470,15,645,0
130,470,120,470,70,470,15,645,0
120,470,110,470,70,470,15,644,0
120,470,110,470,70,470,15,644,0
110,470,100,470,70,470,15,643,0
110,470,100,470,70,470,15,643,0
100,470,90,470,70,470,15,642,0
100,470,90,470,70,470,15,642,0
90,470,80,470,70,470,15,641,0
90,470,80,470,70,470,15,641,0
80,470,70,470,70,470,15,640,0
80,470,70,470,70,470,15,640,0
70,470,60,470,380,410,16,740,0
70,470,60,470,380,410,16,740,0
60,470,50,470,380,410,16,739,0
60,470,50,470,380,410,16,739,0
50,470,50,460,380,410,16,738,0
50,470,50,460,380,410,16,738,0
50,460,50,450,380,410,16,737,736
50,460,50,450,380,410,16,737,736
50,450,50,440,380,410,16,736,735
50,450,50,440,380,410,16,736,735
50,440,60,440,380,410,16,735,734
50,440,60,440,380,410,16,735,734
60,440,70,440,380,410,16,734,733
60,440,70,440,380,410,16,734,733
70,440,80,440,380,410,16,733,732
70,440,80,440,380,410,16,733,732
80,440,90,440,380,410,16,732,731
80,440,90,440,380,410,16,732,731
90,440,100,440,380,410,16,731,730
90,440,100,440,380,410,16,731,730
100,440,110,440,380,410,16,730,729
100,440,110,440,380,410,16,730,729
110,440,120,440,380,410,16,729,728
110,440,120,440,380,410,16,729,728
120,440,130,440,380,410,16,728,727
120,440,130,440,380,410,16,728,727
130,440,140,440,380,410,16,727,726
130,440,140,440,380,410,16,727,726
140,440,150,440,380,410,16,726,725
140,440,150,440,380,410,16,726,725
150,440,150,430,380,410,16,725,724
150,440,150,430,380,410,16,725,724
150,430,160,430,380,410,16,724,723
150,430,160,430,380,410,16,724,723
160,430,170,430,380,410,16,723,722
160,430,170,430,380,410,16,723,722
170,430,180,430,380,410,16,722,721
170,430,180,430,380,410,16,722,721
180,430,190,430,380,410,16,721,720
180,430,190,430,380,410,16,721,720
190,430,200,430,380,410,16,720,719
190,430,200,430,380,410,16,720,719
200,430,210,430,380,410,16,719,718
200,430,210,430,380,410,16,719,718
210,430,220,430,380,410,16,718,717
210,430,220,430,380,410,16,718,717
220,430,220,420,380,410,16,717,716
220,430,220,420,380,410,16,717,716
220,420,230,420,380,410,16,716,715
220,420,230,420,380,410,16,716,715
230,420,240,420,380,410,16,715,714
230,420,240,420,380,410,16,715,714
240,420,250,420,380,410,16,714,713
240,420,250,420,380,410,16,714,713
250,420,260,420,380,410,16,713,712
250,420,260,420,380,410,16,713,712
260,420,270,420,380,410,16,712,711
260,420,270,420,380,410,16,712,711
270,420,280,420,380,410,16,711,710
270,420,280,420,380,410,16,711,710
280,420,290,420,380,410,16,710,709
280,420,290,420,380,410,16,710,709
290,420,300,420,380,410,16,709,708
290,420,300,420,380,410,16,709,708
300,420,300,410,380,410,16,708,707
300,420,300,410,380,410,16,708,707
300,410,310,410,380,410,16,707,706
300,410,310,410,380,410,16,707,706
310,410,320,410,380,410,16,706,705
310,410,320,410,380,410,16,706,705
320,410,330,410,380,410,16,705,704
320,410,330,410,380,410,16,705,704
330,410,340,410,380,410,16,704,703
330,410,340,410,380,410,16,704,703
340,410,350,410,380,410,16,703,702
340,410,350,410,380,410,16,703,702
350,410,360,410,380,410,16,702,701
350,410,360,410,380,410,16,702,701
360,410,370,410,380,410,16,701,700
360,410,370,410,380,410,16,701,700
370,410,380,410,380,410,16,700,800
370,410,380,410,380,410,16,700,800
380,410,390,410,60,70,17,800,799
380,410,390,410,60,70,17,800,799
390,410,400,410,60,70,17,799,798
390,410,400,410,60,70,17,799,798
400,410,410,410,60,70,17,798,797
400,410,410,410,60,70,17,798,797
410,410,420,410,60,70,17,797,796
410,410,420,410,60,70,17,797,796
420,410,420,400,60,70,17,796,795
420,410,420,400,60,70,17,796,795
420,400,420,390,60,70,17,795,794
420,400,420,390,60,70,17,795,794
420,390,420,380,60,70,17,794,793
420,390,420,380,60,70,17,794,793
420,380,420,370,60,70,17,793,792
420,380,420,370,60,70,17,793,792
420,370,420,360,60,70,17,792,791
420,370,420,360,60,70,17,792,791
420,360,420,350,60,70,17,791,790
420,360,420,350,60,70,17,791,790
420,350,420,340,60,70,17,790,789
420,350,420,340,60,70,17,790,789
420,340,420,330,60,70,17,789,788
420,340,420,330,60,70,17,789,788
420,330,420,320,60,70,17,788,787
420,330,420,320,60,70,17,788,787
420,320,420,310,60,70,17,787,786
420,320,420,310,60,70,17,787,786
420,310,420,300,60,70,17,786,785
420,310,420,300,60,70,17,786,785
420,300,420,290,60,70,17,785,784
420,300,420,290,60,70,17,785,784
420,290,420,280,60,70,17,784,783
420,290,420,280,60,70,17,784,783
420,280,420,270,60,70,17,783,782
420,280,420,270,60,70,17,783,782
420,270,420,260,60,70,17,782,781
420,270,420,260,60,70,17,782,781
420,260,420,250,60,70,17,781,780
420,260,420,250,60,70,17,781,780
420,250,420,240,60,70,17,780,779
420,250,420,240,60,70,17,780,779
420,240,420,230,60,70,17,779,778
420,240,420,230,60,70,17,779,778
420,230,420,220,60,70,17,778,777
420,230,420,220,60,70,17,778,777
420,220,420,210,60,70,17,777,776
420,220,420,210,60,70,17,777,776
420,210,420,200,60,70,17,776,775
420,210,420,200,60,70,17,776,775
420,200,420,190,60,70,17,775,774
420,200,420,190,60,70,17,775,774
420,190,420,180,60,70,17,774,773
420,190,420,180,60,70,17,774,773
420,180,420,170,60,70,17,773,772
420,180,420,170,60,70,17,773,772
420,170,420,160,60,70,17,772,771
420,170,420,160,60,70,17,772,771
420,160,420,150,60,70,17,771,770
420,160,420,150,60,70,17,771,770
420,150,420,140,60,70,17,770,769
420,150,420,140,60,70,17,770,769
420,140,420,130,60,70,17,769,768
420,140,420,130,60,70,17,769,768
420,130,420,120,60,70,17,768,767
420,130,420,120,60,70,17,768,767
420,120,420,110,60,70,17,767,766
420,120,420,110,60,70,17,767,766
420,110,420,100,60,70,17,766,765
420,110,420,100,60,70,17,766,765
420,100,420,90,60,70,17,765,764
420,100,420,90,60,70,17,765,764
420,90,420,80,60,70,17,764,763
420,90,420,80,60,70,17,764,763
420,80,420,70,60,70,17,763,762
420,80,420,70,60,70,17,763,762
420,70,410,70,60,70,17,762,761
420,70,410,70,60,70,17,762,761
410,70,400,70,60,70,17,761,760
410,70,400,70,60,70,17,761,760
400,70,390,70,60,70,17,760,759
400,70,390,70,60,70,17,760,759
390,70,380,70,60,70,17,759,758
390,70,380,70,60,70,17,759,758
380,70,370,70,60,70,17,758,757
380,70,370,70,60,70,17,758,757
370,70,360,70,60,70,17,757,756
370,70,360,70,60,70,17,757,756
360,70,350,70,60,70,17,756,755
360,70,350,70,60,70,17,756,755
350,70,340,70,60,70,17,755,754
350,70,340,70,60,70,17,755,754
340,70,330,70,60,70,17,754,753
340,70,330,70,60,70,17,754,753
330,70,320,70,60,70,17,753,752
330,70,320,70,60,70,17,753,752
320,70,310,70,60,70,17,752,751
320,70,310,70,60,70,17,752,751
310,70,300,70,60,70,17,751,750
310,70,300,70,60,70,17,751,750
300,70,290,70,60,70,17,750,749
300,70,290,70,60,70,17,750,749
290,70,280,70,60,70,17,749,748
290,70,280,70,60,70,17,749,748
280,70,270,70,60,70,17,748,747
280,70,270,70,60,70,17,748,747
270,70,260,70,60,70,17,747,746
270,70,260,70,60,70,17,747,746
260,70,250,70,60,70,17,746,745
260,70,250,70,60,70,17,746,745
250,70,240,70,60,70,17,745,744
250,70,240,70,60,70,17,745,744
240,70,230,70,60,70,17,744,743
240,70,230,70,60,70,17,744,743
230,70,220,70,60,70,17,743,742
230,70,220,70,60,70,17,743,742
220,70,210,70,60,70,17,742,741
220,70,210,70,60,70,17,742,741
210,70,200,70,60,70,17,741,740
210,70,200,70,60,70,17,741,740
200,70,190,70,60,70,17,740,739
200,70,190,70,60,70,17,740,739
190,70,180,70,60,70,17,739,738
190,70,180,70,60,70,17,739,738
180,70,170,70,60,70,17,738,737
180,70,170,70,60,70,17,738,737
170,70,160,70,60,70,17,737,736
170,70,160,70,60,70,17,737,736
160,70,150,70,60,70,17,736,735
160,70,150,70,60,70,17,736,735
150,70,140,70,60,70,17,735,734
150,70,140,70,60,70,17,735,734
140,70,130,70,60,70,17,734,733
140,70,130,70,60,70,17,734,733
130,70,120,70,60,70,17,733,732
130,70,120,70,60,70,17,733,732
120,70,110,70,60,70,17,732,731
120,70,110,70,60,70,17,732,731
110,70,100,70,60,70,17,731,730
110,70,100,70,60,70,17,731,730
100,70,90,70,60,70,17,730,729
100,70,90,70,60,70,17,730,729
90,70,80,70,60,70,17,729,728
90,70,80,70,60,70,17,729,728
80,70,70,70,60,70,17,728,727
80,70,70,70,60,70,17,728,727
70,70,60,70,60,70,17,727,827
70,70,60,70,60,70,17,727,827
60,70,50,70,460,70,18,827,826
60,70,50,70,460,70,18,827,826
50,70,40,70,460,70,18,826,825
50,70,40,70,460,70,18,826,825
40,70,30,70,460,70,18,825,824
40,70,30,70,460,70,18,825,824
30,70,20,70,460,70,18,824,823
30,70,20,70,460,70,18,824,823
20,70,10,70,460,70,18,823,822
20,70,10,70,460,70,18,823,822
10,70,10,80,460,70,18,822,821
10,70,10,80,460,70,18,822,821
10,80,10,90,460,70,18,821,820
10,80,10,90,460,70,18,821,820
10,90,10,100,460,70,18,820,819
10,90,10,100,460,70,18,820,819
10,100,20,100,460,70,18,819,818
10,100,20,100,460,70,18,819,818
20,100,30,100,460,70,18,818,817
20,100,30,100,460,70,18,818,817
30,100,40,100,460,70,18,817,816
30,100,40,100,460,70,18,817,816
40,100,50,100,460,70,18,816,815
40,100,50,100,460,70,18,816,815
50,100,60,100,460,70,18,815,814
50,100,60,100,460,70,18,815,814
60,100,70,100,460,70,18,814,813
60,100,70,100,460,70,18,814,813
70,100,80,100,460,70,18,813,812
70,100,80,100,460,70,18,813,812
80,100,90,100,460,70,18,812,811
80,100,90,100,460,70,18,812,811
90,100,100,100,460,70,18,811,810
90,100,100,100,460,70,18,811,810
100,100,110,100,460,70,18,810,809
100,100,110,100,460,70,18,810,809
110,100,120,100,460,70,18,809,808
110,100,120,100,460,70,18,809,808
120,100,130,100,460,70,18,808,807
120,100,130,100,460,70,18,808,807
130,100,140,100,460,70,18,807,806
130,100,140,100,460,70,18,807,806
140,100,150,100,460,70,18,806,805
140,100,150,100,460,70,18,806,805
150,100,160,100,460,70,18,805,804
150,100,160,100,460,70,18,805,804
160,100,170,100,460,70,18,804,803
160,100,170,100,460,70,18,804,803
170,100,180,100,460,70,18,803,802
170,100,180,100,460,70,18,803,802
180,100,190,100,460,70,18,802,801
180,100,190,100,460,70,18,802,801
190,100,200,100,460,70,18,801,800
190,100,200,100,460,70,18,801,800
200,100,210,100,460,70,18,800,799
200,100,210,100,460,70,18,800,799
210,100,220,100,460,70,18,799,798
210,100,220,100,460,70,18,799,798
220,100,230,100,460,70,18,798,797
220,100,230,100,460,70,18,798,797
230,100,240,100,460,70,18,797,796
230,100,240,100,460,70,18,797,796
240,100,250,100,460,70,18,796,795
240,100,250,100,460,70,18,796,795
250,100,260,100,460,70,18,795,794
250,100,260,100,460,70,18,795,794
260,100,270,100,460,70,18,794,793
260,100,270,100,460,70,18,794,793
270,100,280,100,460,70,18,793,792
270,100,280,100,460,70,18,793,792
280,100,290,100,460,70,18,792,791
280,100,290,100,460,70,18,792,791
290,100,300,100,460,70,18,791,790
290,100,300,100,460,70,18,791,790
300,100,310,100,460,70,18,790,789
300,100,310,100,460,70,18,790,789
310,100,320,100,460,70,18,789,788
310,100,320,100,460,70,18,789,788
320,100,330,100,460,70,18,788,787
320,100,330,100,460,70,18,788,787
330,100,340,100,460,70,18,787,786
330,100,340,100,460,70,18,787,786
340,100,350,100,460,70,18,786,785
340,100,350,100,460,70,18,786,785
350,100,360,100,460,70,18,785,784
350,100,360,100,460,70,18,785,784
360,100,370,100,460,70,18,784,783
360,100,370,100,460,70,18,784,783
370,100,380,100,460,70,18,783,782
370,100,380,100,460,70,18,783,782
380,100,390,100,460,70,18,782,781
380,100,390,100,460,70,18,782,781
390,100,400,100,460,70,18,781,780
390,100,400,100,460,70,18,781,780
400,100,410,100,460,70,18,780,779
400,100,410,100,460,70,18,780,779
410,100,420,100,460,70,18,779,778
410,100,420,100,460,70,18,779,778
420,100,430,100,460,70,18,778,777
420,100,430,100,460,70,18,778,777
430,100,440,100,460,70,18,777,776
430,100,440,100,460,70,18,777,776
440,100,450,100,460,70,18,776,775
440,100,450,100,460,70,18,776,775
450,100,460,100,460,70,18,775,774
450,100,460,100,460,70,18,775,774
460,100,460,90,460,70,18,774,773
460,100,460,90,460,70,18,774,773
460,90,460,80,460,70,18,773,772
460,90,460,80,460,70,18,773,772
460,80,460,70,460,70,18,772,872
460,80,460,70,460,70,18,772,872
460,70,460,60,280,150,19,872,871
460,70,460,60,280,150,19,872,871
460,60,460,50,280,150,19,871,870
460,60,460,50,280,150,19,871,870
460,50,450,50,280,150,19,870,869
460,50,450,50,280,150,19,870,869
450,50,440,50,280,150,19,869,868
450,50,440,50,280,150,19,869,868
440,50,430,50,280,150,19,868,867
440,50,430,50,280,150,19,868,867
430,50,420,50,280,150,19,867,866
430,50,420,50,280,150,19,867,866
420,50,410,50,280,150,19,866,865
420,50,410,50,280,150,19,866,865
410,50,400,50,280,150,19,865,864
410,50,400,50,280,150,19,865,864
400,50,390,50,280,150,19,864,863
400,50,390,50,280,150,19,864,863
390,50,380,50,280,150,19,863,862
390,50,380,50,280,150,19,863,862
380,50,370,50,280,150,19,862,861
380,50,370,50,280,150,19,862,861
370,50,360,50,280,150,19,861,860
370,50,360,50,280,150,19,861,860
360,50,350,50,280,150,19,860,859
360,50,350,50,280,150,19,860,859
350,50,340,50,280,150,19,859,858
350,50,340,50,280,150,19,859,858
340,50,330,50,280,150,19,858,857
340,50,330,50,280,150,19,858,857
330,50,320,50,280,150,19,857,856
330,50,320,50,280,150,19,857,856
320,50,310,50,280,150,19,856,855
320,50,310,50,280,150,19,856,855
310,50,300,50,280,150,19,855,854
310,50,300,50,280,150,19,855,854
300,50,290,50,280,150,19,854,853
300,50,290,50,280,150,19,854,853
290,50,280,50,280,150,19,853,852
290,50,280,50,280,150,19,853,852
280,50,280,60,280,150,19,852,851
280,50,280,60,280,150,19,852,851
280,60,280,70,280,150,19,851,850
280,60,280,70,280,150,19,851,850
280,70,280,80,280,150,19,850,849
280,70,280,80,280,150,19,850,849
280,80,280,90,280,150,19,849,848
280,80,280,90,280,150,19,849,848
280,90,280,100,280,150,19,848,847
280,90,280,100,280,150,19,848,847
280,100,280,110,280,150,19,847,846
280,100,280,110,280,150,19,847,846
280,110,280,120,280,150,19,846,845
280,110,280,120,280,150,19,846,845
280,120,280,130,280,150,19,845,844
280,120,280,130,280,150,19,845,844
280,130,280,140,280,150,19,844,843
280,130,280,140,280,150,19,844,843
280,140,280,150,280,150,19,843,943
280,140,280,150,280,150,19,843,943
280,150,280,160,390,370,20,943,942
280,150,280,160,390,370,20,943,942
280,160,280,170,390,370,20,942,941
280,160,280,170,390,370,20,942,941
280,170,280,180,390,370,20,941,940
280,170,280,180,390,370,20,941,940
280,180,280,190,390,370,20,940,939
280,180,280,190,390,370,20,940,939
280,190,280,200,390,370,20,939,938
280,190,280,200,390,370,20,939,938
280,200,280,210,390,370,20,938,937
280,200,280,210,390,370,20,938,937
280,210,280,220,390,370,20,937,936
280,210,280,220,390,370,20,937,936
280,220,280,230,390,370,20,936,935
280,220,280,230,390,370,20,936,935
280,230,280,240,390,370,20,935,934
280,230,280,240,390,370,20,935,934
280,240,280,250,390,370,20,934,933
280,240,280,250,390,370,20,934,933
280,250,280,260,390,370,20,933,932
280,250,280,260,390,370,20,933,932
280,260,280,270,390,370,20,932,931
280,260,280,270,390,370,20,932,931
280,270,280,280,390,370,20,931,930
280,270,280,280,390,370,20,931,930
280,280,280,290,390,370,20,930,929
280,280,280,290,390,370,20,930,929
280,290,280,300,390,370,20,929,928
280,290,280,300,390,370,20,929,928
280,300,280,310,390,370,20,928,927
280,300,280,310,390,370,20,928,927
280,310,280,320,390,370,20,927,926
280,310,280,320,390,370,20,927,926
280,320,280,330,390,370,20,926,925
280,320,280,330,390,370,20,926,925
280,330,280,340,390,370,20,925,924
280,330,280,340,390,370,20,925,924
280,340,280,350,390,370,20,924,923
280,340,280,350,390,370,20,924,923
280,350,280,360,390,370,20,923,922
280,350,280,360,390,370,20,923,922
280,360,280,370,390,370,20,922,921
280,360,280,370,390,370,20,922,921
280,370,290,370,390,370,20,921,920
280,370,290,370,390,370,20,921,920
290,370,300,370,390,370,20,920,919
290,370,300,370,390,370,20,920,919
300,370,310,370,390,370,20,919,918
300,370,310,370,390,370,20,919,918
310,370,320,370,390,370,20,918,917
310,370,320,370,390,370,20,918,917
320,370,330,370,390,370,20,917,916
320,370,330,370,390,370,20,917,916
330,370,340,370,390,370,20,916,915
330,370,340,370,390,370,20,916,915
340,370,350,370,390,370,20,915,914
340,370,350,370,390,370,20,915,914
350,370,360,370,390,370,20,914,913
350,370,360,370,390,370,20,914,913
360,370,370,370,390,370,20,913,912
360,370,370,370,390,370,20,913,912
370,370,380,370,390,370,20,912,911
370,370,380,370,390,370,20,912,911
380,370,390,370,390,370,20,911,1011
380,370,390,370,390,370,20,911,1011
390,370,400,370,410,130,21,1011,1010
390,370,400,370,410,130,21,1011,1010
400,370,410,370,410,130,21,1010,1009
400,370,410,370,410,130,21,1010,1009
410,370,420,370,410,130,21,1009,1008
410,370,420,370,410,130,21,1009,1008
420,370,430,370,410,130,21,1008,1007
420,370,430,370,410,130,21,1008,1007
430,370,430,360,410,130,21,1007,1006
430,370,430,360,410,130,21,1007,1006
430,360,430,350,410,130,21,1006,1005
430,360,430,350,410,130,21,1006,1005
430,350,430,340,410,130,21,1005,1004
430,350,430,340,410,130,21,1005,1004
430,340,430,330,410,130,21,1004,1003
430,340,430,330,410,130,21,1004,1003
430,330,430,320,410,130,21,1003,1002
430,330,430,320,410,130,21,1003,1002
430,320,430,310,410,130,21,1002,1001
430,320,430,310,410,130,21,1002,1001
430,310,430,300,410,130,21,1001,1000
430,310,430,300,410,130,21,1001,1000
430,300,420,300,410,130,21,1000,999
430,300,420,300,410,130,21,1000,999
420,300,410,300,410,130,21,999,998
420,300,410,300,410,130,21,999,998
410,300,400,300,410,130,21,998,997
410,300,400,300,410,130,21,998,997
400,300,400,290,410,130,21,997,996
400,300,400,290,410,130,21,997,996
400,290,400,280,410,130,21,996,995
400,290,400,280,410,130,21,996,995
400,280,400,270,410,130,21,995,994
400,280,400,270,410,130,21,995,994
400,270,400,260,410,130,21,994,993
400,270,400,260,410,130,21,994,993
400,260,400,250,410,130,21,993,992
400,260,400,250,410,130,21,993,992
400,250,400,240,410,130,21,992,991
400,250,400,240,410,130,21,992,991
400,240,400,230,410,130,21,991,990
400,240,400,230,410,130,21,991,990
400,230,400,220,410,130,21,990,989
400,230,400,220,410,130,21,990,989
400,220,410,220,410,130,21,989,988
400,220,410,220,410,130,21,989,988
410,220,410,210,410,130,21,988,987
410,220,410,210,410,130,21,988,987
410,210,410,200,410,130,21,987,986
410,210,410,200,410,130,21,987,986
410,200,410,190,410,130,21,986,985
410,200,410,190,410,130,21,986,985
410,190,410,180,410,130,21,985,984
410,190,410,180,410,130,21,985,984
410,180,410,170,410,130,21,984,983
410,180,410,170,410,130,21,984,983
410,170,410,160,410,130,21,983,982
410,170,410,160,410,130,21,983,982
410,160,410,150,410,130,21,982,981
410,160,410,150,410,130,21,982,981
410,150,410,140,410,130,21,981,980
410,150,410,140,410,130,21,981,980
410,140,410,130,410,130,21,980,1080
410,140,410,130,410,130,21,980,1080
410,130,410,120,250,200,22,1080,1079
410,130,410,120,250,200,22,1080,1079
410,120,410,110,250,200,22,1079,1078
410,120,410,110,250,200,22,1079,1078
410,110,410,100,250,200,22,1078,1077
410,110,410,100,250,200,22,1078,1077
410,100,410,90,250,200,22,1077,1076
410,100,410,90,250,200,22,1077,1076
410,90,400,90,250,200,22,1076,1075
410,90,400,90,250,200,22,1076,1075
400,90,390,90,250,200,22,1075,1074
400,90,390,90,250,200,22,1075,1074
390,90,380,90,250,200,22,1074,1073
390,90,380,90,250,200,22,1074,1073
380,90,370,90,250,200,22,1073,1072
380,90,370,90,250,200,22,1073,1072
370,90,360,90,250,200,22,1072,1071
370,90,360,90,250,200,22,1072,1071
360,90,350,90,250,200,22,1071,1070
360,90,350,90,250,200,22,1071,1070
350,90,340,90,250,200,22,1070,1069
350,90,340,90,250,200,22,1070,1069
340,90,330,90,250,200,22,1069,1068
340,90,330,90,250,200,22,1069,1068
330,90,320,90,250,200,22,1068,1067
330,90,320,90,250,200,22,1068,1067
320,90,310,90,250,200,22,1067,1066
320,90,310,90,250,200,22,1067,1066
310,90,300,90,250,200,22,1066,1065
310,90,300,90,250,200,22,1066,1065
300,90,290,90,250,200,22,1065,1064
300,90,290,90,250,200,22,1065,1064
290,90,280,90,250,200,22,1064,1063
290,90,280,90,250,200,22,1064,1063
280,90,270,90,250,200,22,1063,1062
280,90,270,90,250,200,22,1063,1062
270,90,260,90,250,200,22,1062,1061
270,90,260,90,250,200,22,1062,1061
260,90,250,90,250,200,22,1061,1060
260,90,250,90,250,200,22,1061,1060
250,90,250,100,250,200,22,1060,1059
250,90,250,100,250,200,22,1060,1059
250,100,250,110,250,200,22,1059,1058
250,100,250,110,250,200,22,1059,1058
250,110,250,120,250,200,22,1058,1057
250,110,250,120,250,200,22,1058,1057
250,120,250,130,250,200,22,1057,1056
250,120,250,130,250,200,22,1057,1056
250,130,250,140,250,200,22,1056,1055
250,130,250,140,250,200,22,1056,1055
250,140,250,150,250,200,22,1055,1054
250,140,250,150,250,200,22,1055,1054
250,150,250,160,250,200,22,1054,1053
250,150,250,160,250,200,22,1054,1053
250,160,250,170,250,200,22,1053,1052
250,160,250,170,250,200,22,1053,1052
250,170,250,180,250,200,22,1052,1051
250,170,250,180,250,200,22,1052,1051
250,180,250,190,250,200,22,1051,1050
250,180,250,190,250,200,22,1051,1050
250,190,250,200,250,200,22,1050,1150
250,190,250,200,250,200,22,1050,1150
250,200,250,210,20,90,23,1150,1149
250,200,250,210,20,90,23,1150,1149
250,210,250,220,20,90,23,1149,1148
250,210,250,220,20,90,23,1149,1148
250,220,250,230,20,90,23,1148,1147
250,220,250,230,20,90,23,1148,1147
250,230,250,240,20,90,23,1147,1146
250,230,250,240,20,90,23,1147,1146
250,240,240,240,20,90,23,1146,1145
250,240,240,240,20,90,23,1146,1145
240,240,230,240,20,90,23,1145,1144
240,240,230,240,20,90,23,1145,1144
230,240,220,240,20,90,23,1144,1143
230,240,220,240,20,90,23,1144,1143
220,240,210,240,20,90,23,1143,1142
220,240,210,240,20,90,23,1143,1142
210,240,200,240,20,90,23,1142,1141
210,240,200,240,20,90,23,1142,1141
200,240,190,240,20,90,23,1141,1140
200,240,190,240,20,90,23,1141,1140
190,240,180,240,20,90,23,1140,1139
190,240,180,240,20,90,23,1140,1139
180,240,170,240,20,90,23,1139,1138
180,240,170,240,20,90,23,1139,1138
170,240,160,240,20,90,23,1138,1137
170,240,160,240,20,90,23,1138,1137
160,240,150,240,20,90,23,1137,1136
160,240,150,240,20,90,23,1137,1136
150,240,140,240,20,90,23,1136,1135
150,240,140,240,20,90,23,1136,1135
140,240,130,240,20,90,23,1135,1134
140,240,130,240,20,90,23,1135,1134
130,240,120,240,20,90,23,1134,1133
130,240,120,240,20,90,23,1134,1133
120,240,110,240,20,90,23,1133,1132
120,240,110,240,20,90,23,1133,1132
110,240,100,240,20,90,23,1132,1131
110,240,100,240,20,90,23,1132,1131
100,240,90,240,20,90,23,1131,1130
100,240,90,240,20,90,23,1131,1130
90,240,80,240,20,90,23,1130,1129
90,240,80,240,20,90,23,1130,1129
80,240,70,240,20,90,23,1129,1128
80,240,70,240,20,90,23,1129,1128
70,240,60,240,20,90,23,1128,1127
70,240,60,240,20,90,23,1128,1127
60,240,50,240,20,90,23,1127,1126
60,240,50,240,20,90,23,1127,1126
50,240,40,240,20,90,23,1126,1125
50,240,40,240,20,90,23,1126,1125
40,240,30,240,20,90,23,1125,1124
40,240,30,240,20,90,23,1125,1124
30,240,30,230,20,90,23,1124,1123
30,240,30,230,20,90,23,1124,1123
30,230,30,220,20,90,23,1123,1122
30,230,30,220,20,90,23,1123,1122
30,220,30,210,20,90,23,1122,1121
30,220,30,210,20,90,23,1122,1121
30,210,30,200,20,90,23,1121,1120
30,210,30,200,20,90,23,1121,1120
30,200,30,190,20,90,23,1120,1119
30,200,30,190,20,90,23,1120,1119
30,190,20,190,20,90,23,1119,1118
30,190,20,190,20,90,23,1119,1118
20,190,20,180,20,90,23,1118,1117
20,190,20,180,20,90,23,1118,1117
20,180,20,170,20,90,23,1117,1116
20,180,20,170,20,90,23,1117,1116
20,170,20,160,20,90,23,1116,1115
20,170,20,160,20,90,23,1116,1115
20,160,20,150,20,90,23,1115,1114
20,160,20,150,20,90,23,1115,1114
20,150,20,140,20,90,23,1114,1113
20,150,20,140,20,90,23,1114,1113
20,140,20,130,20,90,23,1113,1112
20,140,20,130,20,90,23,1113,1112
20,130,20,120,20,90,23,1112,1111
20,130,20,120,20,90,23,1112,1111
20,120,20,110,20,90,23,1111,1110
20,120,20,110,20,90,23,1111,1110
20,110,20,100,20,90,23,1110,1109
20,110,20,100,20,90,23,1110,1109
20,100,20,90,20,90,23,1109,1209
20,100,20,90,20,90,23,1109,1209
20,90,20,80,240,110,24,1209,1208
20,90,20,80,240,110,24,1209,1208
20,80,30,80,240,110,24,1208,1207
20,80,30,80,240,110,24,1208,1207
30,80,40,80,240,110,24,1207,1206
30,80,40,80,240,110,24,1207,1206
40,80,50,80,240,110,24,1206,1205
40,80,50,80,240,110,24,1206,1205
50,80,60,80,240,110,24,1205,1204
50,80,60,80,240,110,24,1205,1204
60,80,70,80,240,110,24,1204,1203
60,80,70,80,240,110,24,1204,1203
70,80,80,80,240,110,24,1203,1202
70,80,80,80,240,110,24,1203,1202
80,80,90,80,240,110,24,1202,1201
80,80,90,80,240,110,24,1202,1201
90,80,90,90,240,110,24,1201,1200
90,80,90,90,240,110,24,1201,1200
90,90,90,100,240,110,24,1200,1199
90,90,90,100,240,110,24,1200,1199
90,100,90,110,240,110,24,1199,1198
90,100,90,110,240,110,24,1199,1198
90,110,100,110,240,110,24,1198,1197
90,110,100,110,240,110,24,1198,1197
100,110,110,110,240,110,24,1197,1196
100,110,110,110,240,110,24,1197,1196
110,110,120,110,240,110,24,1196,1195
110,110,120,110,240,110,24,1196,1195
120,110,130,110,240,110,24,1195,1194
120,110,130,110,240,110,24,1195,1194
130,110,140,110,240,110,24,1194,1193
130,110,140,110,240,110,24,1194,1193
140,110,150,110,240,110,24,1193,1192
140,110,150,110,240,110,24,1193,1192
150,110,160,110,240,110,24,1192,1191
150,110,160,110,240,110,24,1192,1191
160,110,170,110,240,110,24,1191,1190
160,110,170,110,240,110,24,1191,1190
170,110,180,110,240,110,24,1190,1189
170,110,180,110,240,110,24,1190,1189
180,110,190,110,240,110,24,1189,1188
180,110,190,110,240,110,24,1189,1188
190,110,200,110,240,110,24,1188,1187
190,110,200,110,240,110,24,1188,1187
200,110,210,110,240,110,24,1187,1186
200,110,210,110,240,110,24,1187,1186
210,110,220,110,240,110,24,1186,1185
210,110,220,110,240,110,24,1186,1185
220,110,230,110,240,110,24,1185,1184
220,110,230,110,240,110,24,1185,1184
230,110,240,110,240,110,24,1184,1284
230,110,240,110,240,110,24,1184,1284
240,110,250,110,160,250,25,1284,1283
240,110,250,110,160,250,25,1284,1283
250,110,260,110,160,250,25,1283,1282
250,110,260,110,160,250,25,1283,1282
260,110,270,110,160,250,25,1282,1281
260,110,270,110,160,250,25,1282,1281
270,110,280,110,160,250,25,1281,1280
270,110,280,110,160,250,25,1281,1280
280,110,280,120,160,250,25,1280,1279
280,110,280,120,160,250,25,1280,1279
280,120,280,130,160,250,25,1279,1278
280,120,280,130,160,250,25,1279,1278
280,130,280,140,160,250,25,1278,1277
280,130,280,140,160,250,25,1278,1277
280,140,280,150,160,250,25,1277,1276
280,140,280,150,160,250,25,1277,1276
280,150,270,150,160,250,25,1276,1275
280,150,270,150,160,250,25,1276,1275
270,150,260,150,160,250,25,1275,1274
270,150,260,150,160,250,25,1275,1274
260,150,250,150,160,250,25,1274,1273
260,150,250,150,160,250,25,1274,1273
250,150,240,150,160,250,25,1273,1272
250,150,240,150,160,250,25,1273,1272
240,150,230,150,160,250,25,1272,1271
240,150,230,150,160,250,25,1272,1271
230,150,220,150,160,250,25,1271,1270
230,150,220,150,160,250,25,1271,1270
220,150,210,150,160,250,25,1270,1269
220,150,210,150,160,250,25,1270,1269
210,150,200,150,160,250,25,1269,1268
210,150,200,150,160,250,25,1269,1268
200,150,190,150,160,250,25,1268,1267
200,150,190,150,160,250,25,1268,1267
190,150,190,160,160,250,25,1267,1266
190,150,190,160,160,250,25,1267,1266
190,160,190,170,160,250,25,1266,1265
190,160,190,170,160,250,25,1266,1265
190,170,190,180,160,250,25,1265,1264
190,170,190,180,160,250,25,1265,1264
190,180,190,190,160,250,25,1264,1263
190,180,190,190,160,250,25,1264,1263
190,190,190,200,160,250,25,1263,1262
190,190,190,200,160,250,25,1263,1262
190,200,190,210,160,250,25,1262,1261
190,200,190,210,160,250,25,1262,1261
190,210,190,220,160,250,25,1261,1260
190,210,190,220,160,250,25,1261,1260
190,220,190,230,160,250,25,1260,1259
190,220,190,230,160,250,25,1260,1259
190,230,190,240,160,250,25,1259,1258
190,230,190,240,160,250,25,1259,1258
190,240,190,250,160,250,25,1258,1257
190,240,190,250,160,250,25,1258,1257
190,250,190,260,160,250,25,1257,1256
190,250,190,260,160,250,25,1257,1256
190,260,180,260,160,250,25,1256,1255
190,260,180,260,160,250,25,1256,1255
180,260,170,260,160,250,25,1255,1254
180,260,170,260,160,250,25,1255,1254
170,260,160,260,160,250,25,1254,1253
170,260,160,260,160,250,25,1254,1253
160,260,150,260,160,250,25,1253,1252
160,260,150,260,160,250,25,1253,1252
150,260,150,250,160,250,25,1252,1251
150,260,150,250,160,250,25,1252,1251
150,250,150,240,160,250,25,1251,1250
150,250,150,240,160,250,25,1251,1250
150,240,150,230,160,250,25,1250,1249
150,240,150,230,160,250,25,1250,1249
150,230,150,220,160,250,25,1249,1248
150,230,150,220,160,250,25,1249,1248
150,220,150,210,160,250,25,1248,1247
150,220,150,210,160,250,25,1248,1247
150,210,150,200,160,250,25,1247,1246
150,210,150,200,160,250,25,1247,1246
150,200,150,190,160,250,25,1246,1245
150,200,150,190,160,250,25,1246,1245
150,190,150,180,160,250,25,1245,1244
150,190,150,180,160,250,25,1245,1244
150,180,150,170,160,250,25,1244,1243
150,180,150,170,160,250,25,1244,1243
150,170,150,160,160,250,25,1243,1242
150,170,150,160,160,250,25,1243,1242
150,160,150,150,160,250,25,1242,1241
150,160,150,150,160,250,25,1242,1241
150,150,150,140,160,250,25,1241,1240
150,150,150,140,160,250,25,1241,1240
150,140,150,130,160,250,25,1240,1239
150,140,150,130,160,250,25,1240,1239
150,130,150,120,160,250,25,1239,1238
150,130,150,120,160,250,25,1239,1238
150,120,160,120,160,250,25,1238,1237
150,120,160,120,160,250,25,1238,1237
160,120,160,130,160,250,25,1237,1236
160,120,160,130,160,250,25,1237,1236
160,130,160,140,160,250,25,1236,1235
160,130,160,140,160,250,25,1236,1235
160,140,160,150,160,250,25,1235,1234
160,140,160,150,160,250,25,1235,1234
160,150,160,160,160,250,25,1234,1233
160,150,160,160,160,250,25,1234,1233
160,160,160,170,160,250,25,1233,1232
160,160,160,170,160,250,25,1233,1232
160,170,160,180,160,250,25,1232,1231
160,170,160,180,160,250,25,1232,1231
160,180,160,190,160,250,25,1231,1230
160,180,160,190,160,250,25,1231,1230
160,190,160,200,160,250,25,1230,1229
160,190,160,200,160,250,25,1230,1229
160,200,160,210,160,250,25,1229,1228
160,200,160,210,160,250,25,1229,1228
160,210,160,220,160,250,25,1228,1227
160,210,160,220,160,250,25,1228,1227
160,220,160,230,160,250,25,1227,1226
160,220,160,230,160,250,25,1227,1226
160,230,160,240,160,250,25,1226,1225
160,230,160,240,160,250,25,1226,1225
160,240,160,250,160,250,25,1225,1325
160,240,160,250,160,250,25,1225,1325
160,250,160,260,150,190,26,1325,1324
160,250,160,260,150,190,26,1325,1324
160,260,160,270,150,190,26,1324,1323
160,260,160,270,150,190,26,1324,1323
160,270,160,280,150,190,26,1323,1322
160,270,160,280,150,190,26,1323,1322
160,280,160,290,150,190,26,1322,1321
160,280,160,290,150,190,26,1322,1321
160,290,160,300,150,190,26,1321,1320
160,290,160,300,150,190,26,1321,1320
160,300,160,310,150,190,26,1320,1319
160,300,160,310,150,190,26,1320,1319
160,310,150,310,150,190,26,1319,1318
160,310,150,310,150,190,26,1319,1318
150,310,150,300,150,190,26,1318,1317
150,310,150,300,150,190,26,1318,1317
150,300,150,290,150,190,26,1317,1316
150,300,150,290,150,190,26,1317,1316
150,290,150,280,150,190,26,1316,1315
150,290,150,280,150,190,26,1316,1315
150,280,150,270,150,190,26,1315,1314
150,280,150,270,150,190,26,1315,1314
150,270,150,260,150,190,26,1314,1313
150,270,150,260,150,190,26,1314,1313
150,260,150,250,150,190,26,1313,1312
150,260,150,250,150,190,26,1313,1312
150,250,150,240,150,190,26,1312,1311
150,250,150,240,150,190,26,1312,1311
150,240,150,230,150,190,26,1311,1310
150,240,150,230,150,190,26,1311,1310
150,230,150,220,150,190,26,1310,1309
150,230,150,220,150,190,26,1310,1309
150,220,150,210,150,190,26,1309,1308
150,220,150,210,150,190,26,1309,1308
150,210,150,200,150,190,26,1308,1307
150,210,150,200,150,190,26,1308,1307
150,200,150,190,150,190,26,1307,1407
150,200,150,190,150,190,26,1307,1407
150,190,150,180,120,140,27,1407,1406
150,190,150,180,120,140,27,1407,1406
150,180,150,170,120,140,27,1406,1405
150,180,150,170,120,140,27,1406,1405
150,170,150,160,120,140,27,1405,1404
150,170,150,160,120,140,27,1405,1404
150,160,150,150,120,140,27,1404,1403
150,160,150,150,120,140,27,1404,1403
150,150,150,140,120,140,27,1403,1402
150,150,150,140,120,140,27,1403,1402
150,140,140,140,120,140,27,1402,1401
150,140,140,140,120,140,27,1402,1401
140,140,130,140,120,140,27,1401,1400
140,140,130,140,120,140,27,1401,1400
130,140,120,140,120,140,27,1400,1500
130,140,120,140,120,140,27,1400,1500
120,140,110,140,470,420,28,1500,1499
120,140,110,140,470,420,28,1500,1499
110,140,100,140,470,420,28,1499,1498
110,140,100,140,470,420,28,1499,1498
100,140,90,140,470,420,28,1498,1497
100,140,90,140,470,420,28,1498,1497
90,140,80,140,470,420,28,1497,1496
90,140,80,140,470,420,28,1497,1496
80,140,70,140,470,420,28,1496,1495
80,140,70,140,470,420,28,1496,1495
70,140,70,150,470,420,28,1495,1494
70,140,70,150,470,420,28,1495,1494
70,150,70,160,470,420,28,1494,1493
70,150,70,160,470,420,28,1494,1493
70,160,70,170,470,420,28,1493,1492
70,160,70,170,470,420,28,1493,1492
70,170,70,180,470,420,28,1492,1491
70,170,70,180,470,420,28,1492,1491
70,180,70,190,470,420,28,1491,1490
70,180,70,190,470,420,28,1491,1490
70,190,70,200,470,420,28,1490,1489
70,190,70,200,470,420,28,1490,1489
70,200,70,210,470,420,28,1489,1488
70,200,70,210,470,420,28,1489,1488
70,210,70,220,470,420,28,1488,1487
70,210,70,220,470,420,28,1488,1487
70,220,70,230,470,420,28,1487,1486
70,220,70,230,470,420,28,1487,1486
70,230,70,240,470,420,28,1486,1485
70,230,70,240,470,420,28,1486,1485
70,240,70,250,470,420,28,1485,1484
70,240,70,250,470,420,28,1485,1484
70,250,70,260,470,420,28,1484,1483
70,250,70,260,470,420,28,1484,1483
70,260,70,270,470,420,28,1483,1482
70,260,70,270,470,420,28,1483,1482
70,270,70,280,470,420,28,1482,1481
70,270,70,280,470,420,28,1482,1481
70,280,70,290,470,420,28,1481,1480
70,280,70,290,470,420,28,1481,1480
70,290,70,300,470,420,28,1480,1479
70,290,70,300,470,420,28,1480,1479
70,300,70,310,470,420,28,1479,1478
70,300,70,310,470,420,28,1479,1478
70,310,70,320,470,420,28,1478,1477
70,310,70,320,470,420,28,1478,1477
70,320,70,330,470,420,28,1477,1476
70,320,70,330,470,420,28,1477,1476
70,330,70,340,470,420,28,1476,1475
70,330,70,340,470,420,28,1476,1475
70,340,70,350,470,420,28,1475,1474
70,340,70,350,470,420,28,1475,1474
70,350,70,360,470,420,28,1474,1473
70,350,70,360,470,420,28,1474,1473
70,360,70,370,470,420,28,1473,1472
70,360,70,370,470,420,28,1473,1472
70,370,70,380,470,420,28,1472,1471
70,370,70,380,470,420,28,1472,1471
70,380,70,390,470,420,28,1471,1470
70,380,70,390,470,420,28,1471,1470
70,390,70,400,470,420,28,1470,1469
70,390,70,400,470,420,28,1470,1469
70,400,80,400,470,420,28,1469,1468
70,400,80,400,470,420,28,1469,1468
80,400,90,400,470,420,28,1468,1467
80,400,90,400,470,420,28,1468,1467
90,400,100,400,470,420,28,1467,1466
90,400,100,400,470,420,28,1467,1466
100,400,110,400,470,420,28,1466,1465
100,400,110,400,470,420,28,1466,1465
110,400,120,400,470,420,28,1465,1464
110,400,120,400,470,420,28,1465,1464
120,400,130,400,470,420,28,1464,1463
120,400,130,400,470,420,28,1464,1463
130,400,140,400,470,420,28,1463,1462
130,400,140,400,470,420,28,1463,1462
140,400,150,400,470,420,28,1462,1461
140,400,150,400,470,420,28,1462,1461
150,400,160,400,470,420,28,1461,1460
150,400,160,400,470,420,28,1461,1460
160,400,170,400,470,420,28,1460,1459
160,400,170,400,470,420,28,1460,1459
170,400,180,400,470,420,28,1459,1458
170,400,180,400,470,420,28,1459,1458
180,400,190,400,470,420,28,1458,1457
180,400,190,400,470,420,28,1458,1457
190,400,200,400,470,420,28,1457,1456
190,400,200,400,470,420,28,1457,1456
200,400,210,400,470,420,28,1456,1455
200,400,210,400,470,420,28,1456,1455
210,400,220,400,470,420,28,1455,1454
210,400,220,400,470,420,28,1455,1454
220,400,230,400,470,420,28,1454,1453
220,400,230,400,470,420,28,1454,1453
230,400,240,400,470,420,28,1453,1452
230,400,240,400,470,420,28,1453,1452
240,400,250,400,470,420,28,1452,1451
240,400,250,400,470,420,28,1452,1451
250,400,250,410,470,420,28,1451,1450
250,400,250,410,470,420,28,1451,1450
250,410,260,410,470,420,28,1450,1449
250,410,260,410,470,420,28,1450,1449
260,410,270,410,470,420,28,1449,1448
260,410,270,410,470,420,28,1449,1448
270,410,280,410,470,420,28,1448,1447
270,410,280,410,470,420,28,1448,1447
280,410,290,410,470,420,28,1447,1446
280,410,290,410,470,420,28,1447,1446
290,410,300,410,470,420,28,1446,1445
290,410,300,410,470,420,28,1446,1445
300,410,310,410,470,420,28,1445,1444
300,410,310,410,470,420,28,1445,1444
310,410,320,410,470,420,28,1444,1443
310,410,320,410,470,420,28,1444,1443
320,410,330,410,470,420,28,1443,1442
320,410,330,410,470,420,28,1443,1442
330,410,340,410,470,420,28,1442,1441
330,410,340,410,470,420,28,1442,1441
340,410,350,410,470,420,28,1441,1440
340,410,350,410,470,420,28,1441,1440
350,410,360,410,470,420,28,1440,1439
350,410,360,410,470,420,28,1440,1439
360,410,370,410,470,420,28,1439,1438
360,410,370,410,470,420,28,1439,1438
370,410,380,410,470,420,28,1438,1437
370,410,380,410,470,420,28,1438,1437
380,410,390,410,470,420,28,1437,1436
380,410,390,410,470,420,28,1437,1436
390,410,400,410,470,420,28,1436,1435
390,410,400,410,470,420,28,1436,1435
400,410,410,410,470,420,28,1435,1434
400,410,410,410,470,420,28,1435,1434
410,410,410,420,470,420,28,1434,1433
410,410,410,420,470,420,28,1434,1433
410,420,420,420,470,420,28,1433,1432
410,420,420,420,470,420,28,1433,1432
420,420,430,420,470,420,28,1432,1431
420,420,430,420,470,420,28,1432,1431
430,420,440,420,470,420,28,1431,1430
430,420,440,420,470,420,28,1431,1430
440,420,450,420,470,420,28,1430,1429
440,420,450,420,470,420,28,1430,1429
450,420,460,420,470,420,28,1429,1428
450,420,460,420,470,420,28,1429,1428
460,420,470,420,470,420,28,1428,0
460,420,470,420,470,420,28,1428,0
470,420,480,420,210,420,29,1528,0
470,420,480,420,210,420,29,1528,0
